NaAsS2 phase
   1.0000000000000000     
     5.9864905202493635    0.0000000000000000    0.0084932710488146
     0.0000000000000000   12.0326676373279184    0.0000000000000000
    -0.0090158285070205    0.0000000000000000    6.2527020130013620
   Na   Bi   Se
     4     4     8
Direct
  0.7500106363494035  0.3745902528541259  0.4962082260004748
  0.2499893636505965  0.6254097471458742  0.5037917739995249
  0.2500106363494034  0.1254097321458764  0.4962082260004748
  0.7499893636505965  0.8745902528541258  0.5037917739995249
  0.7499866211982663  0.6204307142875148  0.9416757570284655
  0.7500133788017337  0.1204307292875124  0.0583242499715315
  0.2500134088017363  0.3795692857124852  0.0583242499715315
  0.2499865911982637  0.8795692857124852  0.9416757570284655
  0.7499946503760021  0.8752153945130607  0.0109554336351058
  0.2499946353760044  0.6247846054869393  0.0109554336351058
  0.7500053496239979  0.3752153945130606  0.9890445433648958
  0.2500053496239979  0.1247846194869405  0.9890445433648958
  0.2499919541347073  0.8750868559731195  0.5234345445596457
  0.2500080308652949  0.3750868559731196  0.4765654554403540
  0.7500080308652949  0.1249131440268803  0.4765654554403540
  0.7499919691347051  0.6249131440268805  0.5234345445596457

  0.00000000E+00  0.00000000E+00  0.00000000E+00
  0.00000000E+00  0.00000000E+00  0.00000000E+00
  0.00000000E+00  0.00000000E+00  0.00000000E+00
  0.00000000E+00  0.00000000E+00  0.00000000E+00
  0.00000000E+00  0.00000000E+00  0.00000000E+00
  0.00000000E+00  0.00000000E+00  0.00000000E+00
  0.00000000E+00  0.00000000E+00  0.00000000E+00
  0.00000000E+00  0.00000000E+00  0.00000000E+00
  0.00000000E+00  0.00000000E+00  0.00000000E+00
  0.00000000E+00  0.00000000E+00  0.00000000E+00
  0.00000000E+00  0.00000000E+00  0.00000000E+00
  0.00000000E+00  0.00000000E+00  0.00000000E+00
  0.00000000E+00  0.00000000E+00  0.00000000E+00
  0.00000000E+00  0.00000000E+00  0.00000000E+00
  0.00000000E+00  0.00000000E+00  0.00000000E+00
  0.00000000E+00  0.00000000E+00  0.00000000E+00
