NaAsS2 phase
   1.0000000000000000     
     6.1986335432943225    0.0000000000000000    0.0889982651092550
     0.0000000000000000   12.8549601574127941    0.0000000000000000
     0.0734878489515680    0.0000000000000000    6.5828482607587322
   K    Sb   S 
     4     4     8
Direct
  0.7591387722738896  0.3737882531129459  0.5027426992666516
  0.2408612277261034  0.6262117468870542  0.4972573007333482
  0.2591387722738966  0.1262117318870564  0.5027426992666516
  0.7408612277261104  0.8737882531129458  0.4972573007333482
  0.7507372224693253  0.6442740530414743  0.9519116826231304
  0.7492627775306747  0.1442740680414719  0.0480883243768667
  0.2492628075306772  0.3557259469585259  0.0480883243768667
  0.2507371924693229  0.8557259469585257  0.9519116826231304
  0.6563121330231521  0.8344418673754079  0.0022513075086700
  0.1563121180231543  0.6655581326245921  0.0022513075086700
  0.8436878669768479  0.3344418673754079  0.9977486694913317
  0.3436878669768479  0.1655581466245933  0.9977486694913317
  0.2392152930515489  0.8754122075524395  0.5948087318337938
  0.2607846919484534  0.3754122075524397  0.4051912681662064
  0.7607846919484534  0.1245877924475604  0.4051912681662064
  0.7392153080515466  0.6245877924475605  0.5948087318337938

  0.00000000E+00  0.00000000E+00  0.00000000E+00
  0.00000000E+00  0.00000000E+00  0.00000000E+00
  0.00000000E+00  0.00000000E+00  0.00000000E+00
  0.00000000E+00  0.00000000E+00  0.00000000E+00
  0.00000000E+00  0.00000000E+00  0.00000000E+00
  0.00000000E+00  0.00000000E+00  0.00000000E+00
  0.00000000E+00  0.00000000E+00  0.00000000E+00
  0.00000000E+00  0.00000000E+00  0.00000000E+00
  0.00000000E+00  0.00000000E+00  0.00000000E+00
  0.00000000E+00  0.00000000E+00  0.00000000E+00
  0.00000000E+00  0.00000000E+00  0.00000000E+00
  0.00000000E+00  0.00000000E+00  0.00000000E+00
  0.00000000E+00  0.00000000E+00  0.00000000E+00
  0.00000000E+00  0.00000000E+00  0.00000000E+00
  0.00000000E+00  0.00000000E+00  0.00000000E+00
  0.00000000E+00  0.00000000E+00  0.00000000E+00
