NaAsS2 phase
   1.0000000000000000     
     5.5225336508048173    0.0000000000000000   -0.0087475585813656
     0.0000000000000000   11.1866415234364815    0.0000000000000000
    -0.0249486912000858    0.0000000000000000    5.6217694844263919
   Li   Sb   S 
     4     4     8
Direct
  0.7543912994860495  0.3733025227949006  0.5114327979651693
  0.2456087005139504  0.6266974772050997  0.4885672020348306
  0.2543912994860496  0.1266974622051017  0.5114327979651693
  0.7456087005139505  0.8733025227949003  0.4885672020348306
  0.7505901384349895  0.6321412540543945  0.9468064798823070
  0.7494098615650105  0.1321412690543994  0.0531935271176900
  0.2494098915650060  0.3678587459455984  0.0531935271176900
  0.2505901084349940  0.8678587459456055  0.9468064798823070
  0.7273882590332632  0.8631958292729955  0.9993423824997276
  0.2273882440332653  0.6368041707270045  0.9993423824997276
  0.7726117409667368  0.3631958292729955  0.0006575945002737
  0.2726117409667369  0.1368041847270056  0.0006575945002737
  0.2439863389247964  0.8753819198747704  0.5198839095806729
  0.2560136460752059  0.3753819198747704  0.4801160904193268
  0.7560136460751984  0.1246180801252296  0.4801160904193268
  0.7439863539248016  0.6246180801252296  0.5198839095806729

  0.00000000E+00  0.00000000E+00  0.00000000E+00
  0.00000000E+00  0.00000000E+00  0.00000000E+00
  0.00000000E+00  0.00000000E+00  0.00000000E+00
  0.00000000E+00  0.00000000E+00  0.00000000E+00
  0.00000000E+00  0.00000000E+00  0.00000000E+00
  0.00000000E+00  0.00000000E+00  0.00000000E+00
  0.00000000E+00  0.00000000E+00  0.00000000E+00
  0.00000000E+00  0.00000000E+00  0.00000000E+00
  0.00000000E+00  0.00000000E+00  0.00000000E+00
  0.00000000E+00  0.00000000E+00  0.00000000E+00
  0.00000000E+00  0.00000000E+00  0.00000000E+00
  0.00000000E+00  0.00000000E+00  0.00000000E+00
  0.00000000E+00  0.00000000E+00  0.00000000E+00
  0.00000000E+00  0.00000000E+00  0.00000000E+00
  0.00000000E+00  0.00000000E+00  0.00000000E+00
  0.00000000E+00  0.00000000E+00  0.00000000E+00
