RbBiS2 phase
   1.0000000000000000     
     4.3542230884297402    0.0000000000000002    0.0000000000000000
    -2.1771115442148701    3.7708678082635845    0.0000000000000000
     0.0000000000000000   -0.0000000000000000   24.1747245792547716
   Rb   Bi   Se
     3     3     6
Direct
  0.3333333300000021  0.6666666699999979  0.1666666699999979
 -0.0000000000000000 -0.0000000000000000  0.5000000000000000
  0.6666666699999979  0.3333333300000021  0.8333333300000021
  0.0000000000000000  0.0000000000000000 -0.0000000000000000
  0.6666666699999979  0.3333333300000021  0.3333333300000021
  0.3333333300000021  0.6666666699999979  0.6666666699999979
  0.6666666699999979  0.3333333300000021  0.0677082908171208
  0.0000000000000000 -0.0000000000000000  0.2656250391828742
  0.3333333300000021  0.6666666699999979  0.4010416308171237
  0.6666666699999979  0.3333333300000021  0.5989583691828764
 -0.0000000000000000 -0.0000000000000000  0.7343749608171257
  0.3333333300000021  0.6666666699999979  0.9322917091828793

  0.00000000E+00  0.00000000E+00  0.00000000E+00
  0.00000000E+00  0.00000000E+00  0.00000000E+00
  0.00000000E+00  0.00000000E+00  0.00000000E+00
  0.00000000E+00  0.00000000E+00  0.00000000E+00
  0.00000000E+00  0.00000000E+00  0.00000000E+00
  0.00000000E+00  0.00000000E+00  0.00000000E+00
  0.00000000E+00  0.00000000E+00  0.00000000E+00
  0.00000000E+00  0.00000000E+00  0.00000000E+00
  0.00000000E+00  0.00000000E+00  0.00000000E+00
  0.00000000E+00  0.00000000E+00  0.00000000E+00
  0.00000000E+00  0.00000000E+00  0.00000000E+00
  0.00000000E+00  0.00000000E+00  0.00000000E+00
