RbBiS2 phase
   1.0000000000000000     
     3.8485567930068867    0.0000000000000000    0.0000000000000000
    -1.9242783965034433    3.3329479506093023    0.0000000000000000
     0.0000000000000000    0.0000000000000000   22.0017026388370738
   K    As   S 
     3     3     6
Direct
  0.3333333300000021  0.6666666699999979  0.1666666699999979
 -0.0000000000000000 -0.0000000000000000  0.5000000000000000
  0.6666666699999979  0.3333333300000021  0.8333333300000021
 -0.0000000000000000 -0.0000000000000000  0.0000000000000000
  0.6666666699999979  0.3333333300000021  0.3333333300000021
  0.3333333300000021  0.6666666699999979  0.6666666699999979
  0.6666666699999979  0.3333333300000021  0.0640329318487802
  0.0000000000000000 -0.0000000000000000  0.2693003981512148
  0.3333333300000021  0.6666666699999979  0.3973662718487831
  0.6666666699999979  0.3333333300000021  0.6026337281512169
  0.0000000000000000  0.0000000000000000  0.7306996018487852
  0.3333333300000021  0.6666666699999979  0.9359670681512198

  0.00000000E+00  0.00000000E+00  0.00000000E+00
  0.00000000E+00  0.00000000E+00  0.00000000E+00
  0.00000000E+00  0.00000000E+00  0.00000000E+00
  0.00000000E+00  0.00000000E+00  0.00000000E+00
  0.00000000E+00  0.00000000E+00  0.00000000E+00
  0.00000000E+00  0.00000000E+00  0.00000000E+00
  0.00000000E+00  0.00000000E+00  0.00000000E+00
  0.00000000E+00  0.00000000E+00  0.00000000E+00
  0.00000000E+00  0.00000000E+00  0.00000000E+00
  0.00000000E+00  0.00000000E+00  0.00000000E+00
  0.00000000E+00  0.00000000E+00  0.00000000E+00
  0.00000000E+00  0.00000000E+00  0.00000000E+00
