NaAsS2 phase
   1.0000000000000000     
     5.3414614256982000    0.0000000000000000   -0.0646544145122203
     0.0000000000000000   10.9687885007766415    0.0000000000000000
    -0.0858033613182926    0.0000000000000000    5.5306924097553676
   Li   As   S 
     4     4     8
Direct
  0.7545210827712989  0.3744985535748380  0.5194924371095853
  0.2454789172287010  0.6255014464251618  0.4805075628904146
  0.2545210827712990  0.1255014314251643  0.5194924371095853
  0.7454789172287011  0.8744985535748382  0.4805075628904146
  0.7677642029840634  0.6428342289263581  0.9255964709937711
  0.7322357970159366  0.1428342439263559  0.0744035360062258
  0.2322358270159391  0.3571657710736418  0.0744035360062258
  0.2677641729840608  0.8571657710736419  0.9255964709937711
  0.7101635428975613  0.8543175747573102  0.9901994751847999
  0.2101635278975636  0.6456824252426898  0.9901994751847999
  0.7898364571024387  0.3543175747573102  0.0098005018152017
  0.2898364571024388  0.1456824392426910  0.0098005018152017
  0.2420750751076359  0.8741949036664275  0.5282912139612634
  0.2579249098923664  0.3741949036664276  0.4717087860387364
  0.7579249098923663  0.1258050963335724  0.4717087860387364
  0.7420750901076337  0.6258050963335725  0.5282912139612634

  0.00000000E+00  0.00000000E+00  0.00000000E+00
  0.00000000E+00  0.00000000E+00  0.00000000E+00
  0.00000000E+00  0.00000000E+00  0.00000000E+00
  0.00000000E+00  0.00000000E+00  0.00000000E+00
  0.00000000E+00  0.00000000E+00  0.00000000E+00
  0.00000000E+00  0.00000000E+00  0.00000000E+00
  0.00000000E+00  0.00000000E+00  0.00000000E+00
  0.00000000E+00  0.00000000E+00  0.00000000E+00
  0.00000000E+00  0.00000000E+00  0.00000000E+00
  0.00000000E+00  0.00000000E+00  0.00000000E+00
  0.00000000E+00  0.00000000E+00  0.00000000E+00
  0.00000000E+00  0.00000000E+00  0.00000000E+00
  0.00000000E+00  0.00000000E+00  0.00000000E+00
  0.00000000E+00  0.00000000E+00  0.00000000E+00
  0.00000000E+00  0.00000000E+00  0.00000000E+00
  0.00000000E+00  0.00000000E+00  0.00000000E+00
