NaSbS2 phase
   1.0000000000000000     
     9.1296273916828259    0.0000000000000000    0.3713298029409933
     0.0000000000000000    9.8902437160598922    0.0000000000000000
    -4.0433667545288987    0.0000000000000000    6.0443592606813947
   Rb   Bi   S 
     4     4     8
Direct
  0.5000000000000000  0.1355837696822854  0.2500000000000000
  0.5000000000000000  0.8644162153177100  0.7500000000000000
 -0.0000000000000000  0.6355837846822900  0.2500000000000000
 -0.0000000000000000  0.3644162153177098  0.7500000000000000
  0.5000000000000000  0.4252766105411603  0.7500000000000000
  0.5000000000000000  0.5747234194588423  0.2500000000000000
 -0.0000000000000000  0.9252765805411577  0.7500000000000000
 -0.0000000000000000  0.0747234044588445  0.2500000000000000
  0.2025236547391978  0.9129483598507619  0.2133231646393385
  0.7974763452608022  0.9129483598507619  0.2866768493606626
  0.7974763452608022  0.0870516471492351  0.7866768493606627
  0.2025236547391978  0.0870516471492351  0.7133231506393373
  0.7025236547391978  0.4129483598507619  0.2133231646393385
  0.2974763452608023  0.4129483598507619  0.2866768493606626
  0.2974763452608023  0.5870516401492381  0.7866768493606627
  0.7025236547391978  0.5870516401492381  0.7133231506393373

  0.00000000E+00  0.00000000E+00  0.00000000E+00
  0.00000000E+00  0.00000000E+00  0.00000000E+00
  0.00000000E+00  0.00000000E+00  0.00000000E+00
  0.00000000E+00  0.00000000E+00  0.00000000E+00
  0.00000000E+00  0.00000000E+00  0.00000000E+00
  0.00000000E+00  0.00000000E+00  0.00000000E+00
  0.00000000E+00  0.00000000E+00  0.00000000E+00
  0.00000000E+00  0.00000000E+00  0.00000000E+00
  0.00000000E+00  0.00000000E+00  0.00000000E+00
  0.00000000E+00  0.00000000E+00  0.00000000E+00
  0.00000000E+00  0.00000000E+00  0.00000000E+00
  0.00000000E+00  0.00000000E+00  0.00000000E+00
  0.00000000E+00  0.00000000E+00  0.00000000E+00
  0.00000000E+00  0.00000000E+00  0.00000000E+00
  0.00000000E+00  0.00000000E+00  0.00000000E+00
  0.00000000E+00  0.00000000E+00  0.00000000E+00
