NaSbS2 phase
   1.0000000000000000     
     8.6520815543583200    0.0000000000000000    0.7113183142907468
     0.0000000000000000   10.4084983826298867    0.0000000000000000
    -3.6090547164439113    0.0000000000000000    5.5480751719913197
   Rb   As   S 
     4     4     8
Direct
  0.5000000000000000  0.1540260777257456  0.2500000000000000
  0.5000000000000000  0.8459739072742496  0.7500000000000000
 -0.0000000000000000  0.6540260927257504  0.2500000000000000
 -0.0000000000000000  0.3459739072742496  0.7500000000000000
  0.5000000000000000  0.4385575360660224  0.7500000000000000
  0.5000000000000000  0.5614424939339800  0.2500000000000000
 -0.0000000000000000  0.9385575060660200  0.7500000000000000
 -0.0000000000000000  0.0614424789339824  0.2500000000000000
  0.1915342260142376  0.9321788392893402  0.2042258379930754
  0.8084657739857624  0.9321788392893402  0.2957741760069258
  0.8084657739857624  0.0678211677106569  0.7957741760069258
  0.1915342260142376  0.0678211677106569  0.7042258239930742
  0.6915342260142376  0.4321788392893402  0.2042258379930754
  0.3084657739857624  0.4321788392893402  0.2957741760069258
  0.3084657739857624  0.5678211607106598  0.7957741760069258
  0.6915342260142376  0.5678211607106598  0.7042258239930742

  0.00000000E+00  0.00000000E+00  0.00000000E+00
  0.00000000E+00  0.00000000E+00  0.00000000E+00
  0.00000000E+00  0.00000000E+00  0.00000000E+00
  0.00000000E+00  0.00000000E+00  0.00000000E+00
  0.00000000E+00  0.00000000E+00  0.00000000E+00
  0.00000000E+00  0.00000000E+00  0.00000000E+00
  0.00000000E+00  0.00000000E+00  0.00000000E+00
  0.00000000E+00  0.00000000E+00  0.00000000E+00
  0.00000000E+00  0.00000000E+00  0.00000000E+00
  0.00000000E+00  0.00000000E+00  0.00000000E+00
  0.00000000E+00  0.00000000E+00  0.00000000E+00
  0.00000000E+00  0.00000000E+00  0.00000000E+00
  0.00000000E+00  0.00000000E+00  0.00000000E+00
  0.00000000E+00  0.00000000E+00  0.00000000E+00
  0.00000000E+00  0.00000000E+00  0.00000000E+00
  0.00000000E+00  0.00000000E+00  0.00000000E+00
