RbBiS2 phase
   1.0000000000000000     
     3.8957905463810265   -0.0000000000000000   -0.0000000000000000
    -1.9478952731905133    3.3738535809458425    0.0000000000000000
    -0.0000000000000000    0.0000000000000000   18.8365821842660637
   Li   Sb   S 
     3     3     6
Direct
  0.3333333300000021  0.6666666699999979  0.1666666699999979
 -0.0000000000000000 -0.0000000000000000  0.5000000000000000
  0.6666666699999979  0.3333333300000021  0.8333333300000021
 -0.0000000000000000 -0.0000000000000000  0.0000000000000000
  0.6666666699999979  0.3333333300000021  0.3333333300000021
  0.3333333300000021  0.6666666699999979  0.6666666699999979
  0.6666666699999979  0.3333333300000021  0.0856963189010845
  0.0000000000000000  0.0000000000000000  0.2476370110989104
  0.3333333300000021  0.6666666699999979  0.4190296589010874
  0.6666666699999979  0.3333333300000021  0.5809703410989124
 -0.0000000000000000 -0.0000000000000000  0.7523629889010897
  0.3333333300000021  0.6666666699999979  0.9143036810989154

  0.00000000E+00  0.00000000E+00  0.00000000E+00
  0.00000000E+00  0.00000000E+00  0.00000000E+00
  0.00000000E+00  0.00000000E+00  0.00000000E+00
  0.00000000E+00  0.00000000E+00  0.00000000E+00
  0.00000000E+00  0.00000000E+00  0.00000000E+00
  0.00000000E+00  0.00000000E+00  0.00000000E+00
  0.00000000E+00  0.00000000E+00  0.00000000E+00
  0.00000000E+00  0.00000000E+00  0.00000000E+00
  0.00000000E+00  0.00000000E+00  0.00000000E+00
  0.00000000E+00  0.00000000E+00  0.00000000E+00
  0.00000000E+00  0.00000000E+00  0.00000000E+00
  0.00000000E+00  0.00000000E+00  0.00000000E+00
