NaAsS2 phase
   1.0000000000000000     
     6.4386917494815030    0.0000000000000000    0.0369553542614863
     0.0000000000000000   13.2499242220387128    0.0000000000000000
     0.0170778017266377    0.0000000000000000    6.8969736474796566
   Rb   Bi   S 
     4     4     8
Direct
  0.7596830596557068  0.3724462438376936  0.5007167603707303
  0.2403169403442861  0.6275537561623062  0.4992832396292697
  0.2596830596557139  0.1275537411623088  0.5007167603707303
  0.7403169403442932  0.8724462438376938  0.4992832396292697
  0.7639872491682852  0.6454123697823718  0.9553403256997052
  0.7360127508317148  0.1454123847823693  0.0446596813002920
  0.2360127808317171  0.3545876302176284  0.0446596813002920
  0.2639872191682829  0.8545876302176282  0.9553403256997052
  0.6731259021109607  0.8379870537453932  0.0010636021013018
  0.1731258871109630  0.6620129462546068  0.0010636021013018
  0.8268740978890393  0.3379870537453930  0.9989363748986999
  0.3268740978890393  0.1620129602546081  0.9989363748986999
  0.2406000840407070  0.8771940255824214  0.6029827708879884
  0.2593999009592952  0.3771940255824144  0.3970172291120116
  0.7593999009592881  0.1228059744175856  0.3970172291120116
  0.7406000990407119  0.6228059744175786  0.6029827708879884

  0.00000000E+00  0.00000000E+00  0.00000000E+00
  0.00000000E+00  0.00000000E+00  0.00000000E+00
  0.00000000E+00  0.00000000E+00  0.00000000E+00
  0.00000000E+00  0.00000000E+00  0.00000000E+00
  0.00000000E+00  0.00000000E+00  0.00000000E+00
  0.00000000E+00  0.00000000E+00  0.00000000E+00
  0.00000000E+00  0.00000000E+00  0.00000000E+00
  0.00000000E+00  0.00000000E+00  0.00000000E+00
  0.00000000E+00  0.00000000E+00  0.00000000E+00
  0.00000000E+00  0.00000000E+00  0.00000000E+00
  0.00000000E+00  0.00000000E+00  0.00000000E+00
  0.00000000E+00  0.00000000E+00  0.00000000E+00
  0.00000000E+00  0.00000000E+00  0.00000000E+00
  0.00000000E+00  0.00000000E+00  0.00000000E+00
  0.00000000E+00  0.00000000E+00  0.00000000E+00
  0.00000000E+00  0.00000000E+00  0.00000000E+00
