RbBiS2 phase
   1.0000000000000000     
     3.9418720163690750    0.0000000000000000    0.0000000000000000
    -1.9709360081845375    3.4137613045973860    0.0000000000000000
    -0.0000000000000000   -0.0000000000000000   21.0692179651331202
   Na   As   Se
     3     3     6
Direct
  0.3333333300000021  0.6666666699999979  0.1666666699999979
  0.0000000000000000  0.0000000000000000  0.5000000000000000
  0.6666666699999979  0.3333333300000021  0.8333333300000021
  0.0000000000000000  0.0000000000000000  0.0000000000000000
  0.6666666699999979  0.3333333300000021  0.3333333300000021
  0.3333333300000021  0.6666666699999979  0.6666666699999979
  0.6666666699999979  0.3333333300000021  0.0720475400962926
  0.0000000000000000  0.0000000000000000  0.2612857899037024
  0.3333333300000021  0.6666666699999979  0.4053808800962955
  0.6666666699999979  0.3333333300000021  0.5946191199037045
  0.0000000000000000  0.0000000000000000  0.7387142100962976
  0.3333333300000021  0.6666666699999979  0.9279524599037074

  0.00000000E+00  0.00000000E+00  0.00000000E+00
  0.00000000E+00  0.00000000E+00  0.00000000E+00
  0.00000000E+00  0.00000000E+00  0.00000000E+00
  0.00000000E+00  0.00000000E+00  0.00000000E+00
  0.00000000E+00  0.00000000E+00  0.00000000E+00
  0.00000000E+00  0.00000000E+00  0.00000000E+00
  0.00000000E+00  0.00000000E+00  0.00000000E+00
  0.00000000E+00  0.00000000E+00  0.00000000E+00
  0.00000000E+00  0.00000000E+00  0.00000000E+00
  0.00000000E+00  0.00000000E+00  0.00000000E+00
  0.00000000E+00  0.00000000E+00  0.00000000E+00
  0.00000000E+00  0.00000000E+00  0.00000000E+00
