NaAsS2 phase
   1.0000000000000000     
     6.4032671612765624    0.0000000000000000   -0.0701653542858047
     0.0000000000000000   13.4306713559369175    0.0000000000000000
    -0.0954560570141125    0.0000000000000000    6.8208153420284372
   K    As   Se
     4     4     8
Direct
  0.7584022193899622  0.3730198860358480  0.5262583298735839
  0.2415977806100375  0.6269801139641520  0.4737416701264160
  0.2584022193899624  0.1269800989641543  0.5262583298735839
  0.7415977806100378  0.8730198860358480  0.4737416701264160
  0.7860714848538405  0.6525852526727404  0.9084427902270328
  0.7139285151461595  0.1525852676727381  0.0915572167729644
  0.2139285451461692  0.3474147473272596  0.0915572167729644
  0.2860714548538378  0.8474147473272596  0.9084427902270328
  0.6708264545246507  0.8272213279975408  0.9735285104413774
  0.1708264395246532  0.6727786720024592  0.9735285104413774
  0.8291735454753493  0.3272213279975481  0.0264714665586241
  0.3291735454753492  0.1727786860024532  0.0264714665586241
  0.2459335347171059  0.8727420393733730  0.5705949924379360
  0.2540664502828964  0.3727420393733734  0.4294050075620640
  0.7540664502828966  0.1272579606266266  0.4294050075620640
  0.7459335497171034  0.6272579606266270  0.5705949924379360

  0.00000000E+00  0.00000000E+00  0.00000000E+00
  0.00000000E+00  0.00000000E+00  0.00000000E+00
  0.00000000E+00  0.00000000E+00  0.00000000E+00
  0.00000000E+00  0.00000000E+00  0.00000000E+00
  0.00000000E+00  0.00000000E+00  0.00000000E+00
  0.00000000E+00  0.00000000E+00  0.00000000E+00
  0.00000000E+00  0.00000000E+00  0.00000000E+00
  0.00000000E+00  0.00000000E+00  0.00000000E+00
  0.00000000E+00  0.00000000E+00  0.00000000E+00
  0.00000000E+00  0.00000000E+00  0.00000000E+00
  0.00000000E+00  0.00000000E+00  0.00000000E+00
  0.00000000E+00  0.00000000E+00  0.00000000E+00
  0.00000000E+00  0.00000000E+00  0.00000000E+00
  0.00000000E+00  0.00000000E+00  0.00000000E+00
  0.00000000E+00  0.00000000E+00  0.00000000E+00
  0.00000000E+00  0.00000000E+00  0.00000000E+00
