NaSbS2 phase
   1.0000000000000000     
     7.8918326227441549    0.0000000000000000   -0.1625333056496515
     0.0000000000000000    7.8917875158811643    0.0000000000000000
    -3.8301790520158665    0.0000000000000000    5.7006280383363990
   Li   Bi   S 
     4     4     8
Direct
  0.5000000000000000  0.1241505187890328  0.2500000000000000
  0.5000000000000000  0.8758494662109626  0.7500000000000000
  0.0000000000000000  0.6241505337890374  0.2500000000000000
  0.0000000000000000  0.3758494662109624  0.7500000000000000
  0.5000000000000000  0.3752570159654988  0.7500000000000000
  0.5000000000000000  0.6247430140345039  0.2500000000000000
  0.0000000000000000  0.8752569859654961  0.7500000000000000
  0.0000000000000000  0.1247429990345060  0.2500000000000000
  0.2517580782150063  0.8751194231964731  0.2532113222196779
  0.7482419217849938  0.8751194231964731  0.2467886917803232
  0.7482419217849938  0.1248805838035310  0.7467886917803235
  0.2517580782150063  0.1248805838035310  0.7532113082196765
  0.7517580782150062  0.3751194231964731  0.2532113222196779
  0.2482419217849936  0.3751194231964731  0.2467886917803232
  0.2482419217849936  0.6248805768035269  0.7467886917803235
  0.7517580782150062  0.6248805768035269  0.7532113082196765

  0.00000000E+00  0.00000000E+00  0.00000000E+00
  0.00000000E+00  0.00000000E+00  0.00000000E+00
  0.00000000E+00  0.00000000E+00  0.00000000E+00
  0.00000000E+00  0.00000000E+00  0.00000000E+00
  0.00000000E+00  0.00000000E+00  0.00000000E+00
  0.00000000E+00  0.00000000E+00  0.00000000E+00
  0.00000000E+00  0.00000000E+00  0.00000000E+00
  0.00000000E+00  0.00000000E+00  0.00000000E+00
  0.00000000E+00  0.00000000E+00  0.00000000E+00
  0.00000000E+00  0.00000000E+00  0.00000000E+00
  0.00000000E+00  0.00000000E+00  0.00000000E+00
  0.00000000E+00  0.00000000E+00  0.00000000E+00
  0.00000000E+00  0.00000000E+00  0.00000000E+00
  0.00000000E+00  0.00000000E+00  0.00000000E+00
  0.00000000E+00  0.00000000E+00  0.00000000E+00
  0.00000000E+00  0.00000000E+00  0.00000000E+00
