NaAsS2 phase
   1.0000000000000000     
     6.0926837768212820    0.0000000000000000    0.0339905778618829
     0.0000000000000000   12.9316900284376199    0.0000000000000000
     0.0165051759319406    0.0000000000000000    6.5278137839391324
   K    As   S 
     4     4     8
Direct
  0.7554687198695076  0.3739463775022890  0.5317190270870129
  0.2445312801304927  0.6260536224977110  0.4682809729129872
  0.2554687198695074  0.1260536074977134  0.5317190270870129
  0.7445312801304924  0.8739463775022890  0.4682809729129872
  0.7712119604618983  0.6528096119694454  0.9144937016263831
  0.7287880395381017  0.1528096269694430  0.0855063053736138
  0.2287880695381043  0.3471903880305547  0.0855063053736138
  0.2712119304618957  0.8471903880305546  0.9144937016263831
  0.6506525010272278  0.8236358515011344  0.9751525542613826
  0.1506524860272299  0.6763641484988656  0.9751525542613826
  0.8493474989727722  0.3236358515011343  0.0248474227386262
  0.3493474989727725  0.1763641624988669  0.0248474227386262
  0.2450318359655473  0.8713626159250594  0.5841878521559511
  0.2549681490344622  0.3713626159250599  0.4158121478440489
  0.7549681490344622  0.1286373840749402  0.4158121478440489
  0.7450318509655378  0.6286373840749406  0.5841878521559511

  0.00000000E+00  0.00000000E+00  0.00000000E+00
  0.00000000E+00  0.00000000E+00  0.00000000E+00
  0.00000000E+00  0.00000000E+00  0.00000000E+00
  0.00000000E+00  0.00000000E+00  0.00000000E+00
  0.00000000E+00  0.00000000E+00  0.00000000E+00
  0.00000000E+00  0.00000000E+00  0.00000000E+00
  0.00000000E+00  0.00000000E+00  0.00000000E+00
  0.00000000E+00  0.00000000E+00  0.00000000E+00
  0.00000000E+00  0.00000000E+00  0.00000000E+00
  0.00000000E+00  0.00000000E+00  0.00000000E+00
  0.00000000E+00  0.00000000E+00  0.00000000E+00
  0.00000000E+00  0.00000000E+00  0.00000000E+00
  0.00000000E+00  0.00000000E+00  0.00000000E+00
  0.00000000E+00  0.00000000E+00  0.00000000E+00
  0.00000000E+00  0.00000000E+00  0.00000000E+00
  0.00000000E+00  0.00000000E+00  0.00000000E+00
