NaSbS2 phase
   1.0000000000000000     
     8.8273259551594023    0.0000000000000000    0.2165871929946449
     0.0000000000000000    9.2460604838563754    0.0000000000000000
    -4.0049557520169863    0.0000000000000000    6.0241969201038117
   K    Bi   S 
     4     4     8
Direct
  0.5000000000000000  0.1316267373757363  0.2500000000000000
  0.5000000000000000  0.8683732476242589  0.7500000000000000
 -0.0000000000000000  0.6316267523757411  0.2500000000000000
 -0.0000000000000000  0.3683732476242588  0.7500000000000000
  0.5000000000000000  0.4170032705828908  0.7500000000000000
  0.5000000000000000  0.5829967594171117  0.2500000000000000
 -0.0000000000000000  0.9170032405828883  0.7500000000000000
 -0.0000000000000000  0.0829967444171140  0.2500000000000000
  0.2108287477996995  0.9059123677015138  0.2189180356937434
  0.7891712522003006  0.9059123677015138  0.2810819783062579
  0.7891712522003006  0.0940876392984832  0.7810819783062578
  0.2108287477996995  0.0940876392984832  0.7189180216937422
  0.7108287477996994  0.4059123677015139  0.2189180356937434
  0.2891712522003005  0.4059123677015139  0.2810819783062579
  0.2891712522003005  0.5940876322984862  0.7810819783062578
  0.7108287477996994  0.5940876322984862  0.7189180216937422

  0.00000000E+00  0.00000000E+00  0.00000000E+00
  0.00000000E+00  0.00000000E+00  0.00000000E+00
  0.00000000E+00  0.00000000E+00  0.00000000E+00
  0.00000000E+00  0.00000000E+00  0.00000000E+00
  0.00000000E+00  0.00000000E+00  0.00000000E+00
  0.00000000E+00  0.00000000E+00  0.00000000E+00
  0.00000000E+00  0.00000000E+00  0.00000000E+00
  0.00000000E+00  0.00000000E+00  0.00000000E+00
  0.00000000E+00  0.00000000E+00  0.00000000E+00
  0.00000000E+00  0.00000000E+00  0.00000000E+00
  0.00000000E+00  0.00000000E+00  0.00000000E+00
  0.00000000E+00  0.00000000E+00  0.00000000E+00
  0.00000000E+00  0.00000000E+00  0.00000000E+00
  0.00000000E+00  0.00000000E+00  0.00000000E+00
  0.00000000E+00  0.00000000E+00  0.00000000E+00
  0.00000000E+00  0.00000000E+00  0.00000000E+00
