NaSbS2 phase
   1.0000000000000000     
     9.0951757228656671    0.0000000000000000    0.5429711274157866
     0.0000000000000000   10.0899521547683158    0.0000000000000000
    -3.9099225145835561    0.0000000000000000    5.7902185388424066
   Rb   Sb   S 
     4     4     8
Direct
  0.5000000000000000  0.1475394550213354  0.2500000000000000
  0.5000000000000000  0.8524605299786598  0.7500000000000000
 -0.0000000000000000  0.6475394700213402  0.2500000000000000
 -0.0000000000000000  0.3524605299786598  0.7500000000000000
  0.5000000000000000  0.4213334606470018  0.7500000000000000
  0.5000000000000000  0.5786665693530006  0.2500000000000000
 -0.0000000000000000  0.9213334306469994  0.7500000000000000
 -0.0000000000000000  0.0786665543530029  0.2500000000000000
  0.1970161014204025  0.9292182349130337  0.2137448361548359
  0.8029838985795974  0.9292182349130337  0.2862551778451652
  0.8029838985795974  0.0707817720869633  0.7862551778451654
  0.1970161014204025  0.0707817720869633  0.7137448221548346
  0.6970161014204026  0.4292182349130337  0.2137448361548359
  0.3029838985795975  0.4292182349130337  0.2862551778451652
  0.3029838985795975  0.5707817650869663  0.7862551778451654
  0.6970161014204026  0.5707817650869663  0.7137448221548346

  0.00000000E+00  0.00000000E+00  0.00000000E+00
  0.00000000E+00  0.00000000E+00  0.00000000E+00
  0.00000000E+00  0.00000000E+00  0.00000000E+00
  0.00000000E+00  0.00000000E+00  0.00000000E+00
  0.00000000E+00  0.00000000E+00  0.00000000E+00
  0.00000000E+00  0.00000000E+00  0.00000000E+00
  0.00000000E+00  0.00000000E+00  0.00000000E+00
  0.00000000E+00  0.00000000E+00  0.00000000E+00
  0.00000000E+00  0.00000000E+00  0.00000000E+00
  0.00000000E+00  0.00000000E+00  0.00000000E+00
  0.00000000E+00  0.00000000E+00  0.00000000E+00
  0.00000000E+00  0.00000000E+00  0.00000000E+00
  0.00000000E+00  0.00000000E+00  0.00000000E+00
  0.00000000E+00  0.00000000E+00  0.00000000E+00
  0.00000000E+00  0.00000000E+00  0.00000000E+00
  0.00000000E+00  0.00000000E+00  0.00000000E+00
