RbBiS2 phase
   1.0000000000000000     
     4.1029119863632566    0.0000000000000000   -0.0000000000000000
    -2.0514559931816283    3.5532260096307189    0.0000000000000000
    -0.0000000000000000   -0.0000000000000000   23.1584705115254970
   Rb   Sb   S 
     3     3     6
Direct
  0.3333333300000021  0.6666666699999979  0.1666666699999979
  0.0000000000000000  0.0000000000000000  0.5000000000000000
  0.6666666699999979  0.3333333300000021  0.8333333300000021
  0.0000000000000000  0.0000000000000000  0.0000000000000000
  0.6666666699999979  0.3333333300000021  0.3333333300000021
  0.3333333300000021  0.6666666699999979  0.6666666699999979
  0.6666666699999979  0.3333333300000021  0.0654191950279355
  0.0000000000000000  0.0000000000000000  0.2679141349720595
  0.3333333300000021  0.6666666699999979  0.3987525350279384
  0.6666666699999979  0.3333333300000021  0.6012474649720616
  0.0000000000000000  0.0000000000000000  0.7320858650279405
  0.3333333300000021  0.6666666699999979  0.9345808049720716

  0.00000000E+00  0.00000000E+00  0.00000000E+00
  0.00000000E+00  0.00000000E+00  0.00000000E+00
  0.00000000E+00  0.00000000E+00  0.00000000E+00
  0.00000000E+00  0.00000000E+00  0.00000000E+00
  0.00000000E+00  0.00000000E+00  0.00000000E+00
  0.00000000E+00  0.00000000E+00  0.00000000E+00
  0.00000000E+00  0.00000000E+00  0.00000000E+00
  0.00000000E+00  0.00000000E+00  0.00000000E+00
  0.00000000E+00  0.00000000E+00  0.00000000E+00
  0.00000000E+00  0.00000000E+00  0.00000000E+00
  0.00000000E+00  0.00000000E+00  0.00000000E+00
  0.00000000E+00  0.00000000E+00  0.00000000E+00
