NaSbS2 phase
   1.0000000000000000     
     8.7406096287572606    0.0000000000000000    0.5289362919393391
     0.0000000000000000   10.1701032484468019    0.0000000000000000
    -3.7712227856510663    0.0000000000000000    5.8518844429262140
   K    As   Se
     4     4     8
Direct
  0.5000000000000000  0.1510655735913226  0.2500000000000000
  0.5000000000000000  0.8489344114086796  0.7500000000000000
 -0.0000000000000000  0.6510655885913204  0.2500000000000000
 -0.0000000000000000  0.3489344114086868  0.7500000000000000
  0.5000000000000000  0.4353910057544556  0.7500000000000000
  0.5000000000000000  0.5646090242455465  0.2500000000000000
 -0.0000000000000000  0.9353909757544535  0.7500000000000000
 -0.0000000000000000  0.0646090092455493  0.2500000000000000
  0.2033628772367413  0.9226834712233496  0.2074791309910763
  0.7966371227632589  0.9226834712233496  0.2925208830089248
  0.7966371227632589  0.0773165357766477  0.7925208830089248
  0.2033628772367413  0.0773165357766477  0.7074791169910752
  0.7033628772367411  0.4226834712233494  0.2074791309910763
  0.2966371227632588  0.4226834712233494  0.2925208830089248
  0.2966371227632588  0.5773165287766504  0.7925208830089248
  0.7033628772367411  0.5773165287766504  0.7074791169910752

  0.00000000E+00  0.00000000E+00  0.00000000E+00
  0.00000000E+00  0.00000000E+00  0.00000000E+00
  0.00000000E+00  0.00000000E+00  0.00000000E+00
  0.00000000E+00  0.00000000E+00  0.00000000E+00
  0.00000000E+00  0.00000000E+00  0.00000000E+00
  0.00000000E+00  0.00000000E+00  0.00000000E+00
  0.00000000E+00  0.00000000E+00  0.00000000E+00
  0.00000000E+00  0.00000000E+00  0.00000000E+00
  0.00000000E+00  0.00000000E+00  0.00000000E+00
  0.00000000E+00  0.00000000E+00  0.00000000E+00
  0.00000000E+00  0.00000000E+00  0.00000000E+00
  0.00000000E+00  0.00000000E+00  0.00000000E+00
  0.00000000E+00  0.00000000E+00  0.00000000E+00
  0.00000000E+00  0.00000000E+00  0.00000000E+00
  0.00000000E+00  0.00000000E+00  0.00000000E+00
  0.00000000E+00  0.00000000E+00  0.00000000E+00
