RbBiS2 phase
   1.0000000000000000     
     3.7648626391893592   -0.0000000000000000    0.0000000000000000
    -1.8824313195946796    3.2604666872584773   -0.0000000000000000
     0.0000000000000000    0.0000000000000000   20.0499338564553398
   Na   As   S 
     3     3     6
Direct
  0.3333333300000021  0.6666666699999979  0.1666666699999979
  0.0000000000000000 -0.0000000000000000  0.5000000000000000
  0.6666666699999979  0.3333333300000021  0.8333333300000021
 -0.0000000000000000 -0.0000000000000000 -0.0000000000000000
  0.6666666699999979  0.3333333300000021  0.3333333300000021
  0.3333333300000021  0.6666666699999979  0.6666666699999979
  0.6666666699999979  0.3333333300000021  0.0718364407890954
  0.0000000000000000 -0.0000000000000000  0.2614968892108996
  0.3333333300000021  0.6666666699999979  0.4051697807890983
  0.6666666699999979  0.3333333300000021  0.5948302192109015
 -0.0000000000000000  0.0000000000000000  0.7385031107891006
  0.3333333300000021  0.6666666699999979  0.9281635592109044

  0.00000000E+00  0.00000000E+00  0.00000000E+00
  0.00000000E+00  0.00000000E+00  0.00000000E+00
  0.00000000E+00  0.00000000E+00  0.00000000E+00
  0.00000000E+00  0.00000000E+00  0.00000000E+00
  0.00000000E+00  0.00000000E+00  0.00000000E+00
  0.00000000E+00  0.00000000E+00  0.00000000E+00
  0.00000000E+00  0.00000000E+00  0.00000000E+00
  0.00000000E+00  0.00000000E+00  0.00000000E+00
  0.00000000E+00  0.00000000E+00  0.00000000E+00
  0.00000000E+00  0.00000000E+00  0.00000000E+00
  0.00000000E+00  0.00000000E+00  0.00000000E+00
  0.00000000E+00  0.00000000E+00  0.00000000E+00
