RbBiS2 phase
   1.0000000000000000     
     4.2288878313680174   -0.0000000000000000    0.0000000000000000
    -2.1144439156840087    3.6623242916635856   -0.0000000000000000
     0.0000000000000000   -0.0000000000000002   21.3447718726334266
   Na   Bi   Se
     3     3     6
Direct
  0.3333333300000021  0.6666666699999979  0.1666666699999979
  0.0000000000000000 -0.0000000000000000  0.5000000000000000
  0.6666666699999979  0.3333333300000021  0.8333333300000021
  0.0000000000000000  0.0000000000000000 -0.0000000000000000
  0.6666666699999979  0.3333333300000021  0.3333333300000021
  0.3333333300000021  0.6666666699999979  0.6666666699999979
  0.6666666699999979  0.3333333300000021  0.0796743262124314
 -0.0000000000000000  0.0000000000000000  0.2536590037875636
  0.3333333300000021  0.6666666699999979  0.4130076662124343
  0.6666666699999979  0.3333333300000021  0.5869923337875657
  0.0000000000000000 -0.0000000000000000  0.7463409962124364
  0.3333333300000021  0.6666666699999979  0.9203256737875686

  0.00000000E+00  0.00000000E+00  0.00000000E+00
  0.00000000E+00  0.00000000E+00  0.00000000E+00
  0.00000000E+00  0.00000000E+00  0.00000000E+00
  0.00000000E+00  0.00000000E+00  0.00000000E+00
  0.00000000E+00  0.00000000E+00  0.00000000E+00
  0.00000000E+00  0.00000000E+00  0.00000000E+00
  0.00000000E+00  0.00000000E+00  0.00000000E+00
  0.00000000E+00  0.00000000E+00  0.00000000E+00
  0.00000000E+00  0.00000000E+00  0.00000000E+00
  0.00000000E+00  0.00000000E+00  0.00000000E+00
  0.00000000E+00  0.00000000E+00  0.00000000E+00
  0.00000000E+00  0.00000000E+00  0.00000000E+00
