NaSbS2 phase
   1.0000000000000000     
     9.1053137069942327    0.0000000000000000    0.3618260346577257
     0.0000000000000000    9.8269238330422350    0.0000000000000000
    -4.0371465899066727    0.0000000000000000    6.1065577565476010
   K    Sb   Se
     4     4     8
Direct
  0.5000000000000000  0.1445110330031878  0.2500000000000000
  0.5000000000000000  0.8554889519968074  0.7500000000000000
 -0.0000000000000000  0.6445110480031926  0.2500000000000000
 -0.0000000000000000  0.3554889519968075  0.7500000000000000
  0.5000000000000000  0.4177123550122340  0.7500000000000000
  0.5000000000000000  0.5822876749877686  0.2500000000000000
 -0.0000000000000000  0.9177123250122314  0.7500000000000000
 -0.0000000000000000  0.0822876599877709  0.2500000000000000
  0.2098257826520589  0.9180672184644544  0.2180103729843270
  0.7901742173479414  0.9180672184644544  0.2819896410156741
  0.7901742173479414  0.0819327885355425  0.7819896410156741
  0.2098257826520589  0.0819327885355425  0.7180103589843259
  0.7098257826520586  0.4180672184644545  0.2180103729843270
  0.2901742173479412  0.4180672184644545  0.2819896410156741
  0.2901742173479412  0.5819327815355456  0.7819896410156741
  0.7098257826520586  0.5819327815355456  0.7180103589843259

  0.00000000E+00  0.00000000E+00  0.00000000E+00
  0.00000000E+00  0.00000000E+00  0.00000000E+00
  0.00000000E+00  0.00000000E+00  0.00000000E+00
  0.00000000E+00  0.00000000E+00  0.00000000E+00
  0.00000000E+00  0.00000000E+00  0.00000000E+00
  0.00000000E+00  0.00000000E+00  0.00000000E+00
  0.00000000E+00  0.00000000E+00  0.00000000E+00
  0.00000000E+00  0.00000000E+00  0.00000000E+00
  0.00000000E+00  0.00000000E+00  0.00000000E+00
  0.00000000E+00  0.00000000E+00  0.00000000E+00
  0.00000000E+00  0.00000000E+00  0.00000000E+00
  0.00000000E+00  0.00000000E+00  0.00000000E+00
  0.00000000E+00  0.00000000E+00  0.00000000E+00
  0.00000000E+00  0.00000000E+00  0.00000000E+00
  0.00000000E+00  0.00000000E+00  0.00000000E+00
  0.00000000E+00  0.00000000E+00  0.00000000E+00
