NaAsS2 phase
   1.0000000000000000     
     5.6323735316246202    0.0000000000000000    0.0084988737179189
     0.0000000000000000   11.3383899747225616    0.0000000000000000
    -0.0081533223128071    0.0000000000000000    5.6575626098687000
   Li   Bi   S 
     4     4     8
Direct
  0.7503369070321458  0.3630878015012866  0.5133842027269505
  0.2496630929678544  0.6369121984987205  0.4866157972730498
  0.2503369070321456  0.1369121834987228  0.5133842027269505
  0.7496630929678542  0.8630878015012795  0.4866157972730498
  0.7499700458415974  0.6229375077160104  0.9535628083579666
  0.7500299541584026  0.1229375227160006  0.0464371986420231
  0.2500299841584051  0.3770624922839971  0.0464371986420231
  0.2499700158415950  0.8770624922839896  0.9535628083579666
  0.7499972607474302  0.8734308615598190  0.0140127885641863
  0.2499972457474324  0.6265691384401810  0.0140127885641863
  0.7500027392525698  0.3734308615598118  0.9859871884358153
  0.2500027392525698  0.1265691524401894  0.9859871884358153
  0.2501014112870109  0.8718782512389798  0.5092886210198345
  0.2498985737129844  0.3718782512389727  0.4907113789801653
  0.7498985737129846  0.1281217487610273  0.4907113789801653
  0.7501014262870154  0.6281217487610202  0.5092886210198345

  0.00000000E+00  0.00000000E+00  0.00000000E+00
  0.00000000E+00  0.00000000E+00  0.00000000E+00
  0.00000000E+00  0.00000000E+00  0.00000000E+00
  0.00000000E+00  0.00000000E+00  0.00000000E+00
  0.00000000E+00  0.00000000E+00  0.00000000E+00
  0.00000000E+00  0.00000000E+00  0.00000000E+00
  0.00000000E+00  0.00000000E+00  0.00000000E+00
  0.00000000E+00  0.00000000E+00  0.00000000E+00
  0.00000000E+00  0.00000000E+00  0.00000000E+00
  0.00000000E+00  0.00000000E+00  0.00000000E+00
  0.00000000E+00  0.00000000E+00  0.00000000E+00
  0.00000000E+00  0.00000000E+00  0.00000000E+00
  0.00000000E+00  0.00000000E+00  0.00000000E+00
  0.00000000E+00  0.00000000E+00  0.00000000E+00
  0.00000000E+00  0.00000000E+00  0.00000000E+00
  0.00000000E+00  0.00000000E+00  0.00000000E+00
