NaAsS2 phase
   1.0000000000000000     
     6.3872881876420031    0.0000000000000000    0.1154921430472300
     0.0000000000000000   13.4768701137424074    0.0000000000000000
     0.1030896601278879    0.0000000000000000    6.8452479342669026
   Rb   Sb   S 
     4     4     8
Direct
  0.7551236031509182  0.3732670650165444  0.5166676916027841
  0.2448763968490818  0.6267329349834557  0.4833323083972160
  0.2551236031509109  0.1267329199834580  0.5166676916027841
  0.7448763968490818  0.8732670650165443  0.4833323083972160
  0.7555338142109701  0.6485836052501737  0.9425628003707888
  0.7444661857890299  0.1485836202501714  0.0574372066292082
  0.2444662157890252  0.3514163947498262  0.0574372066292082
  0.2555337842109747  0.8514163947498263  0.9425628003707888
  0.6475152843721996  0.8278447215252448  0.9905899917043618
  0.1475152693722019  0.6721552784747552  0.9905899917043618
  0.8524847156278004  0.3278447215252519  0.0094099852956399
  0.3524847156278004  0.1721552924747492  0.0094099852956399
  0.2420934164905608  0.8741426814709061  0.6011025613218194
  0.2579065685094415  0.3741426814709063  0.3988974386781807
  0.7579065685094415  0.1258573185290937  0.3988974386781807
  0.7420934314905585  0.6258573185290939  0.6011025613218194

  0.00000000E+00  0.00000000E+00  0.00000000E+00
  0.00000000E+00  0.00000000E+00  0.00000000E+00
  0.00000000E+00  0.00000000E+00  0.00000000E+00
  0.00000000E+00  0.00000000E+00  0.00000000E+00
  0.00000000E+00  0.00000000E+00  0.00000000E+00
  0.00000000E+00  0.00000000E+00  0.00000000E+00
  0.00000000E+00  0.00000000E+00  0.00000000E+00
  0.00000000E+00  0.00000000E+00  0.00000000E+00
  0.00000000E+00  0.00000000E+00  0.00000000E+00
  0.00000000E+00  0.00000000E+00  0.00000000E+00
  0.00000000E+00  0.00000000E+00  0.00000000E+00
  0.00000000E+00  0.00000000E+00  0.00000000E+00
  0.00000000E+00  0.00000000E+00  0.00000000E+00
  0.00000000E+00  0.00000000E+00  0.00000000E+00
  0.00000000E+00  0.00000000E+00  0.00000000E+00
  0.00000000E+00  0.00000000E+00  0.00000000E+00
