First step of partial charge density calculation
ISMEAR = -5
LWAVE = .TRUE.
LCHARG = .TRUE.
PREC = Normal
ENCUT = 400
EDIFF = 1E-6
EDIFFG = -0.5E-3
ISIF = 3
IBRION = 2
POTIM = 0.25
NCORE = 1
NSW = 1
