NaAsS2 phase
   1.0000000000000000     
     5.5676678372612134    0.0000000000000000   -0.1153681516531518
     0.0000000000000000   11.3802517458311812    0.0000000000000000
    -0.1393958989550315    0.0000000000000000    5.7785106297375446
   Li   As   Se
     4     4     8
Direct
  0.7477887766723097  0.3756674814141914  0.5259098414278801
  0.2522112233276832  0.6243325185858086  0.4740901585721129
  0.2477887766723168  0.1243325035858109  0.5259098414278801
  0.7522112233276903  0.8756674814141914  0.4740901585721129
  0.7858179007181116  0.6453384442182829  0.9140163255343500
  0.7141820992818884  0.1453384592182806  0.0859836814656471
  0.2141821292818907  0.3546615557817170  0.0859836814656471
  0.2858178707181093  0.8546615557817171  0.9140163255343500
  0.7385324486095098  0.8625696716337146  0.9818395427567148
  0.2385324336095120  0.6374303283662854  0.9818395427567148
  0.7614675513904902  0.3625696716337143  0.0181604342432799
  0.2614675513904903  0.1374303423662869  0.0181604342432799
  0.2482148094493074  0.8741555679952602  0.5083088194701555
  0.2517851755507021  0.3741555679952602  0.4916911805298373
  0.7517851755506948  0.1258444320047398  0.4916911805298373
  0.7482148244493052  0.6258444320047398  0.5083088194701555

  0.00000000E+00  0.00000000E+00  0.00000000E+00
  0.00000000E+00  0.00000000E+00  0.00000000E+00
  0.00000000E+00  0.00000000E+00  0.00000000E+00
  0.00000000E+00  0.00000000E+00  0.00000000E+00
  0.00000000E+00  0.00000000E+00  0.00000000E+00
  0.00000000E+00  0.00000000E+00  0.00000000E+00
  0.00000000E+00  0.00000000E+00  0.00000000E+00
  0.00000000E+00  0.00000000E+00  0.00000000E+00
  0.00000000E+00  0.00000000E+00  0.00000000E+00
  0.00000000E+00  0.00000000E+00  0.00000000E+00
  0.00000000E+00  0.00000000E+00  0.00000000E+00
  0.00000000E+00  0.00000000E+00  0.00000000E+00
  0.00000000E+00  0.00000000E+00  0.00000000E+00
  0.00000000E+00  0.00000000E+00  0.00000000E+00
  0.00000000E+00  0.00000000E+00  0.00000000E+00
  0.00000000E+00  0.00000000E+00  0.00000000E+00
