NaAsS2 phase
   1.0000000000000000     
     6.2288152727562158    0.0000000000000000    0.0167695679449896
     0.0000000000000000   12.6772819152216112    0.0000000000000000
    -0.0033802887892008    0.0000000000000000    6.6111773033487289
   K    Bi   S 
     4     4     8
Direct
  0.7600516911815716  0.3731407903737568  0.4963680971416198
  0.2399483088184286  0.6268592096262433  0.5036319028583803
  0.2600516911815715  0.1268591946262455  0.4963680971416198
  0.7399483088184284  0.8731407903737567  0.5036319028583803
  0.7612351274457761  0.6412661489207463  0.9570045863201365
  0.7387648725542239  0.1412661639207440  0.0429954206798604
  0.2387649025542265  0.3587338510792538  0.0429954206798604
  0.2612350974457735  0.8587338510792537  0.9570045863201365
  0.6872279984285642  0.8456377831351950  0.0051942221131133
  0.1872279834285666  0.6543622168648050  0.0051942221131133
  0.8127720015714358  0.3456377831351948  0.9948057548868883
  0.3127720015714356  0.1543622308648063  0.9948057548868883
  0.2406658026569226  0.8771285927024913  0.5871489908572930
  0.2593341823430795  0.3771285927024913  0.4128510091427071
  0.7593341823430795  0.1228714072975086  0.4128510091427071
  0.7406658176569205  0.6228714072975087  0.5871489908572930

  0.00000000E+00  0.00000000E+00  0.00000000E+00
  0.00000000E+00  0.00000000E+00  0.00000000E+00
  0.00000000E+00  0.00000000E+00  0.00000000E+00
  0.00000000E+00  0.00000000E+00  0.00000000E+00
  0.00000000E+00  0.00000000E+00  0.00000000E+00
  0.00000000E+00  0.00000000E+00  0.00000000E+00
  0.00000000E+00  0.00000000E+00  0.00000000E+00
  0.00000000E+00  0.00000000E+00  0.00000000E+00
  0.00000000E+00  0.00000000E+00  0.00000000E+00
  0.00000000E+00  0.00000000E+00  0.00000000E+00
  0.00000000E+00  0.00000000E+00  0.00000000E+00
  0.00000000E+00  0.00000000E+00  0.00000000E+00
  0.00000000E+00  0.00000000E+00  0.00000000E+00
  0.00000000E+00  0.00000000E+00  0.00000000E+00
  0.00000000E+00  0.00000000E+00  0.00000000E+00
  0.00000000E+00  0.00000000E+00  0.00000000E+00
