NaAsS2 phase
   1.0000000000000000     
     6.6956035458647065    0.0000000000000000    0.0570246227836654
     0.0000000000000000   13.9830221742328042    0.0000000000000000
     0.0390973345883200    0.0000000000000000    7.1013992636261216
   Na   As   S 
     4     4     8
Direct
  0.7578379006155701  0.3726507189222719  0.5124484931118617
  0.2421620993844299  0.6273492810777281  0.4875515068881382
  0.2578379006155702  0.1273492660777232  0.5124484931118617
  0.7421620993844299  0.8726507189222719  0.4875515068881382
  0.7648957100516746  0.6492520845781002  0.9364475873545308
  0.7351042899483254  0.1492520995780980  0.0635524196454663
  0.2351043199483280  0.3507479154218996  0.0635524196454663
  0.2648956800516790  0.8507479154218998  0.9364475873545308
  0.6608759740202677  0.8318455056130319  0.9893580818868613
  0.1608759590202700  0.6681544943869681  0.9893580818868613
  0.8391240259797323  0.3318455056130180  0.0106418951131403
  0.3391240259797323  0.1681545083869690  0.0106418951131403
  0.2421800726331876  0.8747861604945701  0.5878933798894270
  0.2578199123668147  0.3747861604945700  0.4121066201105729
  0.7578199123668147  0.1252138395054300  0.4121066201105729
  0.7421800876331853  0.6252138395054299  0.5878933798894270

  0.00000000E+00  0.00000000E+00  0.00000000E+00
  0.00000000E+00  0.00000000E+00  0.00000000E+00
  0.00000000E+00  0.00000000E+00  0.00000000E+00
  0.00000000E+00  0.00000000E+00  0.00000000E+00
  0.00000000E+00  0.00000000E+00  0.00000000E+00
  0.00000000E+00  0.00000000E+00  0.00000000E+00
  0.00000000E+00  0.00000000E+00  0.00000000E+00
  0.00000000E+00  0.00000000E+00  0.00000000E+00
  0.00000000E+00  0.00000000E+00  0.00000000E+00
  0.00000000E+00  0.00000000E+00  0.00000000E+00
  0.00000000E+00  0.00000000E+00  0.00000000E+00
  0.00000000E+00  0.00000000E+00  0.00000000E+00
  0.00000000E+00  0.00000000E+00  0.00000000E+00
  0.00000000E+00  0.00000000E+00  0.00000000E+00
  0.00000000E+00  0.00000000E+00  0.00000000E+00
  0.00000000E+00  0.00000000E+00  0.00000000E+00
