NaSbS2 phase
   1.0000000000000000     
     8.9362954083596549    0.0000000000000000    0.6925801698000048
     0.0000000000000000   10.8029007971545798    0.0000000000000000
    -3.7627901337365279    0.0000000000000000    5.8703084031188082
   Rb   As   Se
     4     4     8
Direct
  0.5000000000000000  0.1551368850671636  0.2500000000000000
  0.5000000000000000  0.8448630999328317  0.7500000000000000
  0.0000000000000000  0.6551369000671683  0.2500000000000000
 -0.0000000000000000  0.3448630999328316  0.7500000000000000
  0.5000000000000000  0.4404569136451408  0.7500000000000000
  0.5000000000000000  0.5595431163548616  0.2500000000000000
 -0.0000000000000000  0.9404568836451384  0.7500000000000000
 -0.0000000000000000  0.0595431013548640  0.2500000000000000
  0.1975520996472589  0.9277554431939413  0.2012221486086141
  0.8024479003527412  0.9277554431939413  0.2987778653913871
  0.8024479003527412  0.0722445638060556  0.7987778653913870
  0.1975520996472589  0.0722445638060556  0.7012221346086130
  0.6975520996472588  0.4277554431939415  0.2012221486086141
  0.3024479003527412  0.4277554431939415  0.2987778653913871
  0.3024479003527412  0.5722445568060587  0.7987778653913870
  0.6975520996472588  0.5722445568060587  0.7012221346086130

  0.00000000E+00  0.00000000E+00  0.00000000E+00
  0.00000000E+00  0.00000000E+00  0.00000000E+00
  0.00000000E+00  0.00000000E+00  0.00000000E+00
  0.00000000E+00  0.00000000E+00  0.00000000E+00
  0.00000000E+00  0.00000000E+00  0.00000000E+00
  0.00000000E+00  0.00000000E+00  0.00000000E+00
  0.00000000E+00  0.00000000E+00  0.00000000E+00
  0.00000000E+00  0.00000000E+00  0.00000000E+00
  0.00000000E+00  0.00000000E+00  0.00000000E+00
  0.00000000E+00  0.00000000E+00  0.00000000E+00
  0.00000000E+00  0.00000000E+00  0.00000000E+00
  0.00000000E+00  0.00000000E+00  0.00000000E+00
  0.00000000E+00  0.00000000E+00  0.00000000E+00
  0.00000000E+00  0.00000000E+00  0.00000000E+00
  0.00000000E+00  0.00000000E+00  0.00000000E+00
  0.00000000E+00  0.00000000E+00  0.00000000E+00
