RbBiS2 phase
   1.0000000000000000     
     3.8640550590453486    0.0000000000000000    0.0000000000000000
    -1.9320275295226743    3.3463698427126447   -0.0000000000000000
     0.0000000000000000   -0.0000000000000000   19.3624050441314672
   Li   As   Se
     3     3     6
Direct
  0.3333333300000021  0.6666666699999979  0.1666666699999979
 -0.0000000000000000 -0.0000000000000000  0.5000000000000000
  0.6666666699999979  0.3333333300000021  0.8333333300000021
  0.0000000000000000 -0.0000000000000000  0.0000000000000000
  0.6666666699999979  0.3333333300000021  0.3333333300000021
  0.3333333300000021  0.6666666699999979  0.6666666699999979
  0.6666666699999979  0.3333333300000021  0.0805394520938449
  0.0000000000000000  0.0000000000000000  0.2527938779061501
  0.3333333300000021  0.6666666699999979  0.4138727920938478
  0.6666666699999979  0.3333333300000021  0.5861272079061522
 -0.0000000000000000 -0.0000000000000000  0.7472061220938498
  0.3333333300000021  0.6666666699999979  0.9194605479061552

  0.00000000E+00  0.00000000E+00  0.00000000E+00
  0.00000000E+00  0.00000000E+00  0.00000000E+00
  0.00000000E+00  0.00000000E+00  0.00000000E+00
  0.00000000E+00  0.00000000E+00  0.00000000E+00
  0.00000000E+00  0.00000000E+00  0.00000000E+00
  0.00000000E+00  0.00000000E+00  0.00000000E+00
  0.00000000E+00  0.00000000E+00  0.00000000E+00
  0.00000000E+00  0.00000000E+00  0.00000000E+00
  0.00000000E+00  0.00000000E+00  0.00000000E+00
  0.00000000E+00  0.00000000E+00  0.00000000E+00
  0.00000000E+00  0.00000000E+00  0.00000000E+00
  0.00000000E+00  0.00000000E+00  0.00000000E+00
