RbBiS2 phase
   1.0000000000000000     
     4.0670311872720237   -0.0000000000000002   -0.0000000000000000
    -2.0335155936360119    3.5221523261113128    0.0000000000000000
    -0.0000000000000000   -0.0000000000000001   20.4243309525697683
   Na   Bi   S 
     3     3     6
Direct
  0.3333333300000021  0.6666666699999979  0.1666666699999979
  0.0000000000000000  0.0000000000000000  0.5000000000000000
  0.6666666699999979  0.3333333300000021  0.8333333300000021
 -0.0000000000000000  0.0000000000000000 -0.0000000000000000
  0.6666666699999979  0.3333333300000021  0.3333333300000021
  0.3333333300000021  0.6666666699999979  0.6666666699999979
  0.6666666699999979  0.3333333300000021  0.0792813599640871
 -0.0000000000000000 -0.0000000000000000  0.2540519700359078
  0.3333333300000021  0.6666666699999979  0.4126146999640901
  0.6666666699999979  0.3333333300000021  0.5873853000359098
  0.0000000000000000 -0.0000000000000000  0.7459480299640923
  0.3333333300000021  0.6666666699999979  0.9207186400359127

  0.00000000E+00  0.00000000E+00  0.00000000E+00
  0.00000000E+00  0.00000000E+00  0.00000000E+00
  0.00000000E+00  0.00000000E+00  0.00000000E+00
  0.00000000E+00  0.00000000E+00  0.00000000E+00
  0.00000000E+00  0.00000000E+00  0.00000000E+00
  0.00000000E+00  0.00000000E+00  0.00000000E+00
  0.00000000E+00  0.00000000E+00  0.00000000E+00
  0.00000000E+00  0.00000000E+00  0.00000000E+00
  0.00000000E+00  0.00000000E+00  0.00000000E+00
  0.00000000E+00  0.00000000E+00  0.00000000E+00
  0.00000000E+00  0.00000000E+00  0.00000000E+00
  0.00000000E+00  0.00000000E+00  0.00000000E+00
