NaAsS2 phase
   1.0000000000000000     
     5.7298741545862057    0.0000000000000000    0.0079577325485593
     0.0000000000000000   11.5567735109112704    0.0000000000000000
    -0.0078846111108907    0.0000000000000000    5.8910816822932315
   Li   Sb   Se
     4     4     8
Direct
  0.7505710689521848  0.3738239902528406  0.5121865389968668
  0.2494289310478152  0.6261760097471524  0.4878134610031332
  0.2505710689521848  0.1261759947471547  0.5121865389968668
  0.7494289310478152  0.8738239902528476  0.4878134610031332
  0.7497727031376098  0.6304400013350766  0.9381364006337397
  0.7502272968623902  0.1304400163350742  0.0618636063662572
  0.2502273268623926  0.3695599986649235  0.0618636063662572
  0.2497726731376074  0.8695599986649234  0.9381364006337397
  0.7498742885155381  0.8699443795557912  0.0011631173448533
  0.2498742735155405  0.6300556204442088  0.0011631173448533
  0.7501257114844619  0.3699443795557841  0.9988368596551485
  0.2501257114844690  0.1300556344442100  0.9988368596551485
  0.2498757973227426  0.8751997872951777  0.5071895219305383
  0.2501241876772597  0.3751997872951777  0.4928104780694617
  0.7501241876772595  0.1248002127048223  0.4928104780694617
  0.7498758123227405  0.6248002127048223  0.5071895219305383

  0.00000000E+00  0.00000000E+00  0.00000000E+00
  0.00000000E+00  0.00000000E+00  0.00000000E+00
  0.00000000E+00  0.00000000E+00  0.00000000E+00
  0.00000000E+00  0.00000000E+00  0.00000000E+00
  0.00000000E+00  0.00000000E+00  0.00000000E+00
  0.00000000E+00  0.00000000E+00  0.00000000E+00
  0.00000000E+00  0.00000000E+00  0.00000000E+00
  0.00000000E+00  0.00000000E+00  0.00000000E+00
  0.00000000E+00  0.00000000E+00  0.00000000E+00
  0.00000000E+00  0.00000000E+00  0.00000000E+00
  0.00000000E+00  0.00000000E+00  0.00000000E+00
  0.00000000E+00  0.00000000E+00  0.00000000E+00
  0.00000000E+00  0.00000000E+00  0.00000000E+00
  0.00000000E+00  0.00000000E+00  0.00000000E+00
  0.00000000E+00  0.00000000E+00  0.00000000E+00
  0.00000000E+00  0.00000000E+00  0.00000000E+00
