NaAsS2 phase
   1.0000000000000000     
     5.8415206961095372    0.0000000000000000    0.0082530033989138
     0.0000000000000000   11.7841751896076392    0.0000000000000000
    -0.0086553730445598    0.0000000000000000    5.9824425711306359
   Li   Bi   Se
     4     4     8
Direct
  0.7500006159524168  0.3670873429308504  0.5132615786437531
  0.2499993840475830  0.6329126570691493  0.4867384213562470
  0.2500006159524168  0.1329126420691520  0.5132615786437531
  0.7499993840475832  0.8670873429308507  0.4867384213562470
  0.7500037359362614  0.6216405415858465  0.9425228177602470
  0.7499962640637386  0.1216405565858444  0.0574771892397499
  0.2499962940637411  0.3783594584141532  0.0574771892397499
  0.2500037059362589  0.8783594584141535  0.9425228177602470
  0.7499915824301736  0.8727587762665062  0.0207652435422184
  0.2499915674301761  0.6272412237334938  0.0207652435422184
  0.7500084175698264  0.3727587762665063  0.9792347334577831
  0.2500084175698262  0.1272412377334949  0.9792347334577831
  0.2499954701802474  0.8735937775667545  0.5018398506360906
  0.2500045148197549  0.3735937775667544  0.4981601493639022
  0.7500045148197551  0.1264062224332455  0.4981601493639022
  0.7499954851802449  0.6264062224332455  0.5018398506360906

  0.00000000E+00  0.00000000E+00  0.00000000E+00
  0.00000000E+00  0.00000000E+00  0.00000000E+00
  0.00000000E+00  0.00000000E+00  0.00000000E+00
  0.00000000E+00  0.00000000E+00  0.00000000E+00
  0.00000000E+00  0.00000000E+00  0.00000000E+00
  0.00000000E+00  0.00000000E+00  0.00000000E+00
  0.00000000E+00  0.00000000E+00  0.00000000E+00
  0.00000000E+00  0.00000000E+00  0.00000000E+00
  0.00000000E+00  0.00000000E+00  0.00000000E+00
  0.00000000E+00  0.00000000E+00  0.00000000E+00
  0.00000000E+00  0.00000000E+00  0.00000000E+00
  0.00000000E+00  0.00000000E+00  0.00000000E+00
  0.00000000E+00  0.00000000E+00  0.00000000E+00
  0.00000000E+00  0.00000000E+00  0.00000000E+00
  0.00000000E+00  0.00000000E+00  0.00000000E+00
  0.00000000E+00  0.00000000E+00  0.00000000E+00
