NaAsS2 phase
   1.0000000000000000     
     6.0116120587063966    0.0000000000000000   -0.0252891486705434
     0.0000000000000000   12.2548296784303936    0.0000000000000000
    -0.0444023240027947    0.0000000000000000    6.2362064061100337
   Na   Sb   Se
     4     4     8
Direct
  0.7580323368015658  0.3751098931310350  0.5072949692758102
  0.2419676631984342  0.6248901068689579  0.4927050307241899
  0.2580323368015657  0.1248900918689602  0.5072949692758102
  0.7419676631984342  0.8751098931310421  0.4927050307241899
  0.7592247296862303  0.6406312643873576  0.9393510020827809
  0.7407752703137697  0.1406312793873555  0.0606490049172162
  0.2407753003137723  0.3593687356126422  0.0606490049172162
  0.2592246996862276  0.8593687356126424  0.9393510020827809
  0.7115163526498618  0.8577876895919154  0.9954191405076643
  0.2115163376498644  0.6422123104080846  0.9954191405076643
  0.7884836473501382  0.3577876895919155  0.0045808364923374
  0.2884836473501379  0.1422123244080857  0.0045808364923374
  0.2418132588219860  0.8746238110399784  0.5355391261997506
  0.2581867261780163  0.3746238110399785  0.4644608738002495
  0.7581867261780163  0.1253761889600215  0.4644608738002495
  0.7418132738219837  0.6253761889600216  0.5355391261997506

  0.00000000E+00  0.00000000E+00  0.00000000E+00
  0.00000000E+00  0.00000000E+00  0.00000000E+00
  0.00000000E+00  0.00000000E+00  0.00000000E+00
  0.00000000E+00  0.00000000E+00  0.00000000E+00
  0.00000000E+00  0.00000000E+00  0.00000000E+00
  0.00000000E+00  0.00000000E+00  0.00000000E+00
  0.00000000E+00  0.00000000E+00  0.00000000E+00
  0.00000000E+00  0.00000000E+00  0.00000000E+00
  0.00000000E+00  0.00000000E+00  0.00000000E+00
  0.00000000E+00  0.00000000E+00  0.00000000E+00
  0.00000000E+00  0.00000000E+00  0.00000000E+00
  0.00000000E+00  0.00000000E+00  0.00000000E+00
  0.00000000E+00  0.00000000E+00  0.00000000E+00
  0.00000000E+00  0.00000000E+00  0.00000000E+00
  0.00000000E+00  0.00000000E+00  0.00000000E+00
  0.00000000E+00  0.00000000E+00  0.00000000E+00
