NaAsS2 phase
   1.0000000000000000     
     5.9039721106708853    0.0000000000000000   -0.1290579879688858
     0.0000000000000000   12.1905499137556905    0.0000000000000000
    -0.1563829159600549    0.0000000000000000    6.2205842968940601
   Na   As   Se
     4     4     8
Direct
  0.7545041006560296  0.3747351255385186  0.5125772185330111
  0.2454958993439705  0.6252648744614814  0.4874227814669820
  0.2545041006560295  0.1252648594614837  0.5125772185330111
  0.7454958993439704  0.8747351255385186  0.4874227814669820
  0.7889156643054869  0.6474900014771441  0.9233840222772187
  0.7110843356945131  0.1474900164771414  0.0766159847227783
  0.2110843656945155  0.3525099985228564  0.0766159847227783
  0.2889156343054844  0.8525099985228559  0.9233840222772187
  0.7118545721390364  0.8460568529559528  0.9895809212759077
  0.2118545571390386  0.6539431470440472  0.9895809212759077
  0.7881454278609636  0.3460568529559528  0.0104190557240939
  0.2881454278609636  0.1539431610440484  0.0104190557240939
  0.2477953871557988  0.8738510784372747  0.5482320048524340
  0.2522045978442106  0.3738510784372747  0.4517679951475589
  0.7522045978442033  0.1261489215627253  0.4517679951475589
  0.7477954021557967  0.6261489215627253  0.5482320048524340

  0.00000000E+00  0.00000000E+00  0.00000000E+00
  0.00000000E+00  0.00000000E+00  0.00000000E+00
  0.00000000E+00  0.00000000E+00  0.00000000E+00
  0.00000000E+00  0.00000000E+00  0.00000000E+00
  0.00000000E+00  0.00000000E+00  0.00000000E+00
  0.00000000E+00  0.00000000E+00  0.00000000E+00
  0.00000000E+00  0.00000000E+00  0.00000000E+00
  0.00000000E+00  0.00000000E+00  0.00000000E+00
  0.00000000E+00  0.00000000E+00  0.00000000E+00
  0.00000000E+00  0.00000000E+00  0.00000000E+00
  0.00000000E+00  0.00000000E+00  0.00000000E+00
  0.00000000E+00  0.00000000E+00  0.00000000E+00
  0.00000000E+00  0.00000000E+00  0.00000000E+00
  0.00000000E+00  0.00000000E+00  0.00000000E+00
  0.00000000E+00  0.00000000E+00  0.00000000E+00
  0.00000000E+00  0.00000000E+00  0.00000000E+00
