NaSbS2 phase
   1.0000000000000000     
     8.2319808140334025    0.0000000000000000    0.0229969130856333
     0.0000000000000000    8.3847835289671711    0.0000000000000000
    -3.8561444332616701    0.0000000000000000    5.7278540382198839
   Na   Sb   S 
     4     4     8
Direct
  0.5000000000000000  0.1328881279530694  0.2500000000000000
  0.5000000000000000  0.8671118570469258  0.7500000000000000
  0.0000000000000000  0.6328881429530742  0.2500000000000000
  0.0000000000000000  0.3671118570469257  0.7500000000000000
  0.5000000000000000  0.4006901365656996  0.7500000000000000
  0.5000000000000000  0.5993098934343025  0.2500000000000000
  0.0000000000000000  0.9006901065656975  0.7500000000000000
  0.0000000000000000  0.0993098784343051  0.2500000000000000
  0.2225951560685125  0.9071804453980592  0.2361374986516882
  0.7774048439314876  0.9071804453980592  0.2638625153483129
  0.7774048439314876  0.0928195616019377  0.7638625153483202
  0.2225951560685125  0.0928195616019377  0.7361374846516798
  0.7225951560685124  0.4071804453980591  0.2361374986516882
  0.2774048439314878  0.4071804453980591  0.2638625153483129
  0.2774048439314878  0.5928195546019408  0.7638625153483202
  0.7225951560685124  0.5928195546019408  0.7361374846516798

  0.00000000E+00  0.00000000E+00  0.00000000E+00
  0.00000000E+00  0.00000000E+00  0.00000000E+00
  0.00000000E+00  0.00000000E+00  0.00000000E+00
  0.00000000E+00  0.00000000E+00  0.00000000E+00
  0.00000000E+00  0.00000000E+00  0.00000000E+00
  0.00000000E+00  0.00000000E+00  0.00000000E+00
  0.00000000E+00  0.00000000E+00  0.00000000E+00
  0.00000000E+00  0.00000000E+00  0.00000000E+00
  0.00000000E+00  0.00000000E+00  0.00000000E+00
  0.00000000E+00  0.00000000E+00  0.00000000E+00
  0.00000000E+00  0.00000000E+00  0.00000000E+00
  0.00000000E+00  0.00000000E+00  0.00000000E+00
  0.00000000E+00  0.00000000E+00  0.00000000E+00
  0.00000000E+00  0.00000000E+00  0.00000000E+00
  0.00000000E+00  0.00000000E+00  0.00000000E+00
  0.00000000E+00  0.00000000E+00  0.00000000E+00
