RbBiS2 phase
   1.0000000000000000     
     4.0693978213667874   -0.0000000000000001    0.0000000000000000
    -2.0346989106833937    3.5242018913584605   -0.0000000000000000
     0.0000000000000000   -0.0000000000000000   22.2885995926587093
   K    Sb   S 
     3     3     6
Direct
  0.3333333300000021  0.6666666699999979  0.1666666699999979
  0.0000000000000000 -0.0000000000000000  0.5000000000000000
  0.6666666699999979  0.3333333300000021  0.8333333300000021
  0.0000000000000000 -0.0000000000000000 -0.0000000000000000
  0.6666666699999979  0.3333333300000021  0.3333333300000021
  0.3333333300000021  0.6666666699999979  0.6666666699999979
  0.6666666699999979  0.3333333300000021  0.0686602620488645
 -0.0000000000000000 -0.0000000000000000  0.2646730679511305
  0.3333333300000021  0.6666666699999979  0.4019936020488674
  0.6666666699999979  0.3333333300000021  0.5980063979511325
  0.0000000000000000 -0.0000000000000000  0.7353269320488696
  0.3333333300000021  0.6666666699999979  0.9313397379511354

  0.00000000E+00  0.00000000E+00  0.00000000E+00
  0.00000000E+00  0.00000000E+00  0.00000000E+00
  0.00000000E+00  0.00000000E+00  0.00000000E+00
  0.00000000E+00  0.00000000E+00  0.00000000E+00
  0.00000000E+00  0.00000000E+00  0.00000000E+00
  0.00000000E+00  0.00000000E+00  0.00000000E+00
  0.00000000E+00  0.00000000E+00  0.00000000E+00
  0.00000000E+00  0.00000000E+00  0.00000000E+00
  0.00000000E+00  0.00000000E+00  0.00000000E+00
  0.00000000E+00  0.00000000E+00  0.00000000E+00
  0.00000000E+00  0.00000000E+00  0.00000000E+00
  0.00000000E+00  0.00000000E+00  0.00000000E+00
