NaSbS2 phase
   1.0000000000000000     
     9.3813013168886297    0.0000000000000000    0.3668685950224304
     0.0000000000000000   10.3057403799514304    0.0000000000000000
    -4.1662834145805183    0.0000000000000000    6.3298116762636338
   Rb   Bi   Se
     4     4     8
Direct
  0.5000000000000000  0.1364973674731623  0.2500000000000000
  0.5000000000000000  0.8635026175268330  0.7500000000000000
 -0.0000000000000000  0.6364973824731670  0.2500000000000000
 -0.0000000000000000  0.3635026175268328  0.7500000000000000
  0.5000000000000000  0.4305722414899723  0.7500000000000000
  0.5000000000000000  0.5694277885100303  0.2500000000000000
 -0.0000000000000000  0.9305722114899697  0.7500000000000000
 -0.0000000000000000  0.0694277735100326  0.2500000000000000
  0.2081600189689996  0.9071522220658448  0.2111229576808490
  0.7918399810310004  0.9071522220658448  0.2888770563191522
  0.7918399810310004  0.0928477849341523  0.7888770563191593
  0.2081600189689996  0.0928477849341523  0.7111229436808407
  0.7081600189689996  0.4071522220658447  0.2111229576808490
  0.2918399810310003  0.4071522220658447  0.2888770563191522
  0.2918399810310003  0.5928477779341552  0.7888770563191593
  0.7081600189689996  0.5928477779341552  0.7111229436808407

  0.00000000E+00  0.00000000E+00  0.00000000E+00
  0.00000000E+00  0.00000000E+00  0.00000000E+00
  0.00000000E+00  0.00000000E+00  0.00000000E+00
  0.00000000E+00  0.00000000E+00  0.00000000E+00
  0.00000000E+00  0.00000000E+00  0.00000000E+00
  0.00000000E+00  0.00000000E+00  0.00000000E+00
  0.00000000E+00  0.00000000E+00  0.00000000E+00
  0.00000000E+00  0.00000000E+00  0.00000000E+00
  0.00000000E+00  0.00000000E+00  0.00000000E+00
  0.00000000E+00  0.00000000E+00  0.00000000E+00
  0.00000000E+00  0.00000000E+00  0.00000000E+00
  0.00000000E+00  0.00000000E+00  0.00000000E+00
  0.00000000E+00  0.00000000E+00  0.00000000E+00
  0.00000000E+00  0.00000000E+00  0.00000000E+00
  0.00000000E+00  0.00000000E+00  0.00000000E+00
  0.00000000E+00  0.00000000E+00  0.00000000E+00
