NaAsS2 phase
   1.0000000000000000     
     6.6069245530084704    0.0000000000000000    0.0794787934723203
     0.0000000000000000   14.0384110910766804    0.0000000000000000
     0.0624314322800931    0.0000000000000000    7.0349899477459941
   Rb   As   Se
     4     4     8
Direct
  0.7565598633305394  0.3725834760191633  0.5448176105580352
  0.2434401366694607  0.6274165239808368  0.4551823894419648
  0.2565598633305394  0.1274165089808391  0.5448176105580352
  0.7434401366694606  0.8725834760191632  0.4551823894419648
  0.7699106767222174  0.6558537118870260  0.8965779277538792
  0.7300893232777826  0.1558537268870238  0.1034220792461179
  0.2300893532777780  0.3441462881129738  0.1034220792461179
  0.2699106467222149  0.8441462881129740  0.8965779277538792
  0.6384597825093203  0.8201958715967154  0.9611344403814390
  0.1384597675093228  0.6798041284032846  0.9611344403814390
  0.8615402174906797  0.3201958715967155  0.0388655366185556
  0.3615402174906795  0.1798041424032786  0.0388655366185556
  0.2427406832342816  0.8715549868897092  0.5713942208396154
  0.2572593017657206  0.3715549868897093  0.4286057791603849
  0.7572593017657208  0.1284450131102907  0.4286057791603849
  0.7427406982342792  0.6284450131102908  0.5713942208396154

  0.00000000E+00  0.00000000E+00  0.00000000E+00
  0.00000000E+00  0.00000000E+00  0.00000000E+00
  0.00000000E+00  0.00000000E+00  0.00000000E+00
  0.00000000E+00  0.00000000E+00  0.00000000E+00
  0.00000000E+00  0.00000000E+00  0.00000000E+00
  0.00000000E+00  0.00000000E+00  0.00000000E+00
  0.00000000E+00  0.00000000E+00  0.00000000E+00
  0.00000000E+00  0.00000000E+00  0.00000000E+00
  0.00000000E+00  0.00000000E+00  0.00000000E+00
  0.00000000E+00  0.00000000E+00  0.00000000E+00
  0.00000000E+00  0.00000000E+00  0.00000000E+00
  0.00000000E+00  0.00000000E+00  0.00000000E+00
  0.00000000E+00  0.00000000E+00  0.00000000E+00
  0.00000000E+00  0.00000000E+00  0.00000000E+00
  0.00000000E+00  0.00000000E+00  0.00000000E+00
  0.00000000E+00  0.00000000E+00  0.00000000E+00
