NaAsS2 phase
   1.0000000000000000     
     6.7258247285076465    0.0000000000000000   -0.0001946924579269
     0.0000000000000000   13.7676063248330802    0.0000000000000000
    -0.0217679117109967    0.0000000000000000    7.1363827808095195
   Na   As   S 
     4     4     8
Direct
  0.7613387369138492  0.3718566226726351  0.4984304213462685
  0.2386612630861508  0.6281433773273650  0.5015695786537243
  0.2613387369138493  0.1281433623273673  0.4984304213462685
  0.7386612630861508  0.8718566226726350  0.5015695786537243
  0.7708089257443970  0.6467755730655139  0.9501083196013671
  0.7291910742556030  0.1467755880655116  0.0498916873986299
  0.2291911042556055  0.3532244269344861  0.0498916873986299
  0.2708088957443945  0.8532244269344861  0.9501083196013671
  0.6826636636001618  0.8415522879813444  0.0008540554838104
  0.1826636486001642  0.6584477120186556  0.0008540554838104
  0.8173363363998382  0.3415522879813447  0.9991459215161913
  0.3173363363998382  0.1584477260186565  0.9991459215161913
  0.2402816097443186  0.8776353695217110  0.5910971478923395
  0.2597183752556838  0.3776353695217038  0.4089028521076605
  0.7597183752556836  0.1223646304782960  0.4089028521076605
  0.7402816247443164  0.6223646304782890  0.5910971478923395

  0.00000000E+00  0.00000000E+00  0.00000000E+00
  0.00000000E+00  0.00000000E+00  0.00000000E+00
  0.00000000E+00  0.00000000E+00  0.00000000E+00
  0.00000000E+00  0.00000000E+00  0.00000000E+00
  0.00000000E+00  0.00000000E+00  0.00000000E+00
  0.00000000E+00  0.00000000E+00  0.00000000E+00
  0.00000000E+00  0.00000000E+00  0.00000000E+00
  0.00000000E+00  0.00000000E+00  0.00000000E+00
  0.00000000E+00  0.00000000E+00  0.00000000E+00
  0.00000000E+00  0.00000000E+00  0.00000000E+00
  0.00000000E+00  0.00000000E+00  0.00000000E+00
  0.00000000E+00  0.00000000E+00  0.00000000E+00
  0.00000000E+00  0.00000000E+00  0.00000000E+00
  0.00000000E+00  0.00000000E+00  0.00000000E+00
  0.00000000E+00  0.00000000E+00  0.00000000E+00
  0.00000000E+00  0.00000000E+00  0.00000000E+00
