NaSbS2 phase
   1.0000000000000000     
     8.1387854940433559    0.0000000000000000    0.1703139167055547
     0.0000000000000000    8.8335216291746796    0.0000000000000000
    -3.7173156126946938    0.0000000000000000    5.8183665747241493
   Na   As   Se
     4     4     8
Direct
  0.5000000000000000  0.1403028943523381  0.2500000000000000
  0.5000000000000000  0.8596970906476571  0.7500000000000000
  0.0000000000000000  0.6403029093523429  0.2500000000000000
  0.0000000000000000  0.3596970906476571  0.7500000000000000
  0.5000000000000000  0.4226881638800677  0.7500000000000000
  0.5000000000000000  0.5773118661199348  0.2500000000000000
  0.0000000000000000  0.9226881338800652  0.7500000000000000
  0.0000000000000000  0.0773118511199371  0.2500000000000000
  0.2206357298009962  0.9068601315203679  0.2208596981280095
  0.7793642701990038  0.9068601315203679  0.2791403158719916
  0.7793642701990038  0.0931398754796291  0.7791403158719916
  0.2206357298009962  0.0931398754796291  0.7208596841280084
  0.7206357298009962  0.4068601315203679  0.2208596981280095
  0.2793642701990038  0.4068601315203679  0.2791403158719916
  0.2793642701990038  0.5931398684796321  0.7791403158719916
  0.7206357298009962  0.5931398684796321  0.7208596841280084

  0.00000000E+00  0.00000000E+00  0.00000000E+00
  0.00000000E+00  0.00000000E+00  0.00000000E+00
  0.00000000E+00  0.00000000E+00  0.00000000E+00
  0.00000000E+00  0.00000000E+00  0.00000000E+00
  0.00000000E+00  0.00000000E+00  0.00000000E+00
  0.00000000E+00  0.00000000E+00  0.00000000E+00
  0.00000000E+00  0.00000000E+00  0.00000000E+00
  0.00000000E+00  0.00000000E+00  0.00000000E+00
  0.00000000E+00  0.00000000E+00  0.00000000E+00
  0.00000000E+00  0.00000000E+00  0.00000000E+00
  0.00000000E+00  0.00000000E+00  0.00000000E+00
  0.00000000E+00  0.00000000E+00  0.00000000E+00
  0.00000000E+00  0.00000000E+00  0.00000000E+00
  0.00000000E+00  0.00000000E+00  0.00000000E+00
  0.00000000E+00  0.00000000E+00  0.00000000E+00
  0.00000000E+00  0.00000000E+00  0.00000000E+00
