RbBiS2 phase
   1.0000000000000000     
     4.1482233413226570   -0.0000000000000000   -0.0000000000000000
    -2.0741116706613285    3.5924667941038502   -0.0000000000000000
     0.0000000000000000    0.0000000000000000   21.2905771214450148
   Na   Sb   Se
     3     3     6
Direct
  0.3333333300000021  0.6666666699999979  0.1666666699999979
  0.0000000000000000  0.0000000000000000  0.5000000000000000
  0.6666666699999979  0.3333333300000021  0.8333333300000021
  0.0000000000000000  0.0000000000000000  0.0000000000000000
  0.6666666699999979  0.3333333300000021  0.3333333300000021
  0.3333333300000021  0.6666666699999979  0.6666666699999979
  0.6666666699999979  0.3333333300000021  0.0775621834065703
  0.0000000000000000  0.0000000000000000  0.2557711465934247
  0.3333333300000021  0.6666666699999979  0.4108955234065732
  0.6666666699999979  0.3333333300000021  0.5891044765934268
  0.0000000000000000  0.0000000000000000  0.7442288534065753
  0.3333333300000021  0.6666666699999979  0.9224378165934297

  0.00000000E+00  0.00000000E+00  0.00000000E+00
  0.00000000E+00  0.00000000E+00  0.00000000E+00
  0.00000000E+00  0.00000000E+00  0.00000000E+00
  0.00000000E+00  0.00000000E+00  0.00000000E+00
  0.00000000E+00  0.00000000E+00  0.00000000E+00
  0.00000000E+00  0.00000000E+00  0.00000000E+00
  0.00000000E+00  0.00000000E+00  0.00000000E+00
  0.00000000E+00  0.00000000E+00  0.00000000E+00
  0.00000000E+00  0.00000000E+00  0.00000000E+00
  0.00000000E+00  0.00000000E+00  0.00000000E+00
  0.00000000E+00  0.00000000E+00  0.00000000E+00
  0.00000000E+00  0.00000000E+00  0.00000000E+00
