RbBiS2 phase
   1.0000000000000000     
     4.1561571600037857    0.0000000000000000    0.0000000000000000
    -2.0780785800018928    3.5993376826302721    0.0000000000000000
     0.0000000000000000   -0.0000000000000000   22.3533543246985396
   K    Bi   S 
     3     3     6
Direct
  0.3333333300000021  0.6666666699999979  0.1666666699999979
  0.0000000000000000  0.0000000000000000  0.5000000000000000
  0.6666666699999979  0.3333333300000021  0.8333333300000021
  0.0000000000000000  0.0000000000000000 -0.0000000000000000
  0.6666666699999979  0.3333333300000021  0.3333333300000021
  0.3333333300000021  0.6666666699999979  0.6666666699999979
  0.6666666699999979  0.3333333300000021  0.0704998158781929
  0.0000000000000000 -0.0000000000000000  0.2628335141218022
  0.3333333300000021  0.6666666699999979  0.4038331558781957
  0.6666666699999979  0.3333333300000021  0.5961668441218041
 -0.0000000000000000  0.0000000000000000  0.7371664858781980
  0.3333333300000021  0.6666666699999979  0.9295001841218070

  0.00000000E+00  0.00000000E+00  0.00000000E+00
  0.00000000E+00  0.00000000E+00  0.00000000E+00
  0.00000000E+00  0.00000000E+00  0.00000000E+00
  0.00000000E+00  0.00000000E+00  0.00000000E+00
  0.00000000E+00  0.00000000E+00  0.00000000E+00
  0.00000000E+00  0.00000000E+00  0.00000000E+00
  0.00000000E+00  0.00000000E+00  0.00000000E+00
  0.00000000E+00  0.00000000E+00  0.00000000E+00
  0.00000000E+00  0.00000000E+00  0.00000000E+00
  0.00000000E+00  0.00000000E+00  0.00000000E+00
  0.00000000E+00  0.00000000E+00  0.00000000E+00
  0.00000000E+00  0.00000000E+00  0.00000000E+00
