RbBiS2 phase
   1.0000000000000000     
     4.2345386496992941   -0.0000000000000000   -0.0000000000000000
    -2.1172693248496470    3.6672180438900153   -0.0000000000000000
     0.0000000000000000   -0.0000000000000000   23.2741559704673158
   K    Sb   Se
     3     3     6
Direct
  0.3333333300000021  0.6666666699999979  0.1666666699999979
 -0.0000000000000000  0.0000000000000000  0.5000000000000000
  0.6666666699999979  0.3333333300000021  0.8333333300000021
  0.0000000000000000  0.0000000000000000  0.0000000000000000
  0.6666666699999979  0.3333333300000021  0.3333333300000021
  0.3333333300000021  0.6666666699999979  0.6666666699999979
  0.6666666699999979  0.3333333300000021  0.0691778229342429
 -0.0000000000000000 -0.0000000000000000  0.2641555070657521
  0.3333333300000021  0.6666666699999979  0.4025111629342458
  0.6666666699999979  0.3333333300000021  0.5974888370657540
  0.0000000000000000  0.0000000000000000  0.7358444929342481
  0.3333333300000021  0.6666666699999979  0.9308221770657569

  0.00000000E+00  0.00000000E+00  0.00000000E+00
  0.00000000E+00  0.00000000E+00  0.00000000E+00
  0.00000000E+00  0.00000000E+00  0.00000000E+00
  0.00000000E+00  0.00000000E+00  0.00000000E+00
  0.00000000E+00  0.00000000E+00  0.00000000E+00
  0.00000000E+00  0.00000000E+00  0.00000000E+00
  0.00000000E+00  0.00000000E+00  0.00000000E+00
  0.00000000E+00  0.00000000E+00  0.00000000E+00
  0.00000000E+00  0.00000000E+00  0.00000000E+00
  0.00000000E+00  0.00000000E+00  0.00000000E+00
  0.00000000E+00  0.00000000E+00  0.00000000E+00
  0.00000000E+00  0.00000000E+00  0.00000000E+00
