NaSbS2 phase
   1.0000000000000000     
     8.2351961703460770    0.0000000000000000   -0.1699388284330334
     0.0000000000000000    8.2384546827038534    0.0000000000000000
    -3.9978804963503798    0.0000000000000000    5.9438895502835223
   Li   Bi   Se
     4     4     8
Direct
  0.5000000000000000  0.1243218478444342  0.2500000000000000
  0.5000000000000000  0.8756781371555612  0.7500000000000000
 -0.0000000000000000  0.6243218628444388  0.2500000000000000
 -0.0000000000000000  0.3756781371555610  0.7500000000000000
  0.5000000000000000  0.3751745853515123  0.7500000000000000
  0.5000000000000000  0.6248254446484833  0.2500000000000000
 -0.0000000000000000  0.8751745553515167  0.7500000000000000
 -0.0000000000000000  0.1248254296484854  0.2500000000000000
  0.2520236381147120  0.8749415779971247  0.2539054470018025
  0.7479763618852879  0.8749415779971247  0.2460945669981987
  0.7479763618852879  0.1250584290028723  0.7460945669981917
  0.2520236381147120  0.1250584290028723  0.7539054330018083
  0.7520236381147121  0.3749415779971247  0.2539054470018025
  0.2479763618852879  0.3749415779971247  0.2460945669981987
  0.2479763618852879  0.6250584220028753  0.7460945669981917
  0.7520236381147121  0.6250584220028753  0.7539054330018083

  0.00000000E+00  0.00000000E+00  0.00000000E+00
  0.00000000E+00  0.00000000E+00  0.00000000E+00
  0.00000000E+00  0.00000000E+00  0.00000000E+00
  0.00000000E+00  0.00000000E+00  0.00000000E+00
  0.00000000E+00  0.00000000E+00  0.00000000E+00
  0.00000000E+00  0.00000000E+00  0.00000000E+00
  0.00000000E+00  0.00000000E+00  0.00000000E+00
  0.00000000E+00  0.00000000E+00  0.00000000E+00
  0.00000000E+00  0.00000000E+00  0.00000000E+00
  0.00000000E+00  0.00000000E+00  0.00000000E+00
  0.00000000E+00  0.00000000E+00  0.00000000E+00
  0.00000000E+00  0.00000000E+00  0.00000000E+00
  0.00000000E+00  0.00000000E+00  0.00000000E+00
  0.00000000E+00  0.00000000E+00  0.00000000E+00
  0.00000000E+00  0.00000000E+00  0.00000000E+00
  0.00000000E+00  0.00000000E+00  0.00000000E+00
