NaSbS2 phase
   1.0000000000000000     
     7.8292273392767893    0.0000000000000000   -0.1570650768727498
     0.0000000000000000    7.9402207919575485    0.0000000000000000
    -3.7923289102772846    0.0000000000000000    5.5980541851424075
   Li   Sb   S 
     4     4     8
Direct
  0.5000000000000000  0.1193375161778308  0.2500000000000000
  0.5000000000000000  0.8806624688221646  0.7500000000000000
 -0.0000000000000000  0.6193375311778354  0.2500000000000000
 -0.0000000000000000  0.3806624688221574  0.7500000000000000
  0.5000000000000000  0.3947803349018321  0.7500000000000000
  0.5000000000000000  0.6052196950981704  0.2500000000000000
 -0.0000000000000000  0.8947803049018296  0.7500000000000000
 -0.0000000000000000  0.1052196800981728  0.2500000000000000
  0.2412847465831512  0.8955938481571741  0.2528521317127552
  0.7587152534168486  0.8955938481571741  0.2471478822872460
  0.7587152534168486  0.1044061588428230  0.7471478822872532
  0.2412847465831512  0.1044061588428230  0.7528521177127468
  0.7412847465831514  0.3955938481571741  0.2528521317127552
  0.2587152534168487  0.3955938481571741  0.2471478822872460
  0.2587152534168487  0.6044061518428259  0.7471478822872532
  0.7412847465831514  0.6044061518428259  0.7528521177127468

  0.00000000E+00  0.00000000E+00  0.00000000E+00
  0.00000000E+00  0.00000000E+00  0.00000000E+00
  0.00000000E+00  0.00000000E+00  0.00000000E+00
  0.00000000E+00  0.00000000E+00  0.00000000E+00
  0.00000000E+00  0.00000000E+00  0.00000000E+00
  0.00000000E+00  0.00000000E+00  0.00000000E+00
  0.00000000E+00  0.00000000E+00  0.00000000E+00
  0.00000000E+00  0.00000000E+00  0.00000000E+00
  0.00000000E+00  0.00000000E+00  0.00000000E+00
  0.00000000E+00  0.00000000E+00  0.00000000E+00
  0.00000000E+00  0.00000000E+00  0.00000000E+00
  0.00000000E+00  0.00000000E+00  0.00000000E+00
  0.00000000E+00  0.00000000E+00  0.00000000E+00
  0.00000000E+00  0.00000000E+00  0.00000000E+00
  0.00000000E+00  0.00000000E+00  0.00000000E+00
  0.00000000E+00  0.00000000E+00  0.00000000E+00
