NaSbS2 phase
   1.0000000000000000     
     8.4355758696729453    0.0000000000000000    0.0191829772679774
     0.0000000000000000    8.7123908604675862    0.0000000000000000
    -3.9554975978293769    0.0000000000000000    6.0529044986457663
   Na   Sb   Se
     4     4     8
Direct
  0.5000000000000000  0.1357776727275984  0.2500000000000000
  0.5000000000000000  0.8642223122723969  0.7500000000000000
  0.0000000000000000  0.6357776877276031  0.2500000000000000
  0.0000000000000000  0.3642223122723968  0.7500000000000000
  0.5000000000000000  0.4040590378325158  0.7500000000000000
  0.5000000000000000  0.5959409921674865  0.2500000000000000
  0.0000000000000000  0.9040590078325135  0.7500000000000000
  0.0000000000000000  0.0959409771674890  0.2500000000000000
  0.2295990611801227  0.9007234088683804  0.2324718941381921
  0.7704009388198773  0.9007234088683804  0.2675281198618092
  0.7704009388198773  0.0992765981316167  0.7675281198618092
  0.2295990611801227  0.0992765981316167  0.7324718801381908
  0.7295990611801227  0.4007234088683803  0.2324718941381921
  0.2704009388198774  0.4007234088683803  0.2675281198618092
  0.2704009388198774  0.5992765911316196  0.7675281198618092
  0.7295990611801227  0.5992765911316196  0.7324718801381908

  0.00000000E+00  0.00000000E+00  0.00000000E+00
  0.00000000E+00  0.00000000E+00  0.00000000E+00
  0.00000000E+00  0.00000000E+00  0.00000000E+00
  0.00000000E+00  0.00000000E+00  0.00000000E+00
  0.00000000E+00  0.00000000E+00  0.00000000E+00
  0.00000000E+00  0.00000000E+00  0.00000000E+00
  0.00000000E+00  0.00000000E+00  0.00000000E+00
  0.00000000E+00  0.00000000E+00  0.00000000E+00
  0.00000000E+00  0.00000000E+00  0.00000000E+00
  0.00000000E+00  0.00000000E+00  0.00000000E+00
  0.00000000E+00  0.00000000E+00  0.00000000E+00
  0.00000000E+00  0.00000000E+00  0.00000000E+00
  0.00000000E+00  0.00000000E+00  0.00000000E+00
  0.00000000E+00  0.00000000E+00  0.00000000E+00
  0.00000000E+00  0.00000000E+00  0.00000000E+00
  0.00000000E+00  0.00000000E+00  0.00000000E+00
