NaSbS2 phase
   1.0000000000000000     
     8.0633305439773864    0.0000000000000000   -0.1407664866199738
     0.0000000000000000    8.1683163795963996    0.0000000000000000
    -3.8966804280465945    0.0000000000000000    5.8789029930221419
   Li   Sb   Se
     4     4     8
Direct
  0.5000000000000000  0.1235048711864897  0.2500000000000000
  0.5000000000000000  0.8764951138135055  0.7500000000000000
  0.0000000000000000  0.6235048861864945  0.2500000000000000
  0.0000000000000000  0.3764951138135055  0.7500000000000000
  0.5000000000000000  0.3946369803916479  0.7500000000000000
  0.5000000000000000  0.6053630496083545  0.2500000000000000
  0.0000000000000000  0.8946369503916455  0.7500000000000000
  0.0000000000000000  0.1053630346083569  0.2500000000000000
  0.2480852420171532  0.8846329168598714  0.2481953921508612
  0.7519147579828468  0.8846329168598714  0.2518046218491398
  0.7519147579828468  0.1153670901401255  0.7518046218491399
  0.2480852420171532  0.1153670901401255  0.7481953781508601
  0.7480852420171532  0.3846329168598714  0.2481953921508612
  0.2519147579828468  0.3846329168598714  0.2518046218491398
  0.2519147579828468  0.6153670831401286  0.7518046218491399
  0.7480852420171532  0.6153670831401286  0.7481953781508601

  0.00000000E+00  0.00000000E+00  0.00000000E+00
  0.00000000E+00  0.00000000E+00  0.00000000E+00
  0.00000000E+00  0.00000000E+00  0.00000000E+00
  0.00000000E+00  0.00000000E+00  0.00000000E+00
  0.00000000E+00  0.00000000E+00  0.00000000E+00
  0.00000000E+00  0.00000000E+00  0.00000000E+00
  0.00000000E+00  0.00000000E+00  0.00000000E+00
  0.00000000E+00  0.00000000E+00  0.00000000E+00
  0.00000000E+00  0.00000000E+00  0.00000000E+00
  0.00000000E+00  0.00000000E+00  0.00000000E+00
  0.00000000E+00  0.00000000E+00  0.00000000E+00
  0.00000000E+00  0.00000000E+00  0.00000000E+00
  0.00000000E+00  0.00000000E+00  0.00000000E+00
  0.00000000E+00  0.00000000E+00  0.00000000E+00
  0.00000000E+00  0.00000000E+00  0.00000000E+00
  0.00000000E+00  0.00000000E+00  0.00000000E+00
