NaAsS2 phase
   1.0000000000000000     
     6.4807192682339485    0.0000000000000000    0.0323977716501048
     0.0000000000000000   13.3754717973070427    0.0000000000000000
     0.0135754096049456    0.0000000000000000    6.8371499548465779
   K    Sb   Se
     4     4     8
Direct
  0.7600465008847405  0.3733098922435951  0.5031456420470559
  0.2399534991152599  0.6266901077564045  0.4968543579529437
  0.2600465008847401  0.1266900927564073  0.5031456420470559
  0.7399534991152595  0.8733098922435955  0.4968543579529437
  0.7615562093210473  0.6460748460217427  0.9433153638318650
  0.7384437906789527  0.1460748610217409  0.0566846431681319
  0.2384438206789553  0.3539251539782564  0.0566846431681319
  0.2615561793210447  0.8539251539782573  0.9433153638318650
  0.6728987416043017  0.8393604121075460  0.9975412328440276
  0.1728987266043039  0.6606395878924540  0.9975412328440276
  0.8271012583956983  0.3393604121075455  0.0024587441559741
  0.3271012583956985  0.1606396018924556  0.0024587441559741
  0.2405019647822905  0.8753843894876637  0.5793216144055946
  0.2594980202177046  0.3753843894876636  0.4206783855944052
  0.7594980202177047  0.1246156105123363  0.4206783855944052
  0.7405019797822953  0.6246156105123363  0.5793216144055946

  0.00000000E+00  0.00000000E+00  0.00000000E+00
  0.00000000E+00  0.00000000E+00  0.00000000E+00
  0.00000000E+00  0.00000000E+00  0.00000000E+00
  0.00000000E+00  0.00000000E+00  0.00000000E+00
  0.00000000E+00  0.00000000E+00  0.00000000E+00
  0.00000000E+00  0.00000000E+00  0.00000000E+00
  0.00000000E+00  0.00000000E+00  0.00000000E+00
  0.00000000E+00  0.00000000E+00  0.00000000E+00
  0.00000000E+00  0.00000000E+00  0.00000000E+00
  0.00000000E+00  0.00000000E+00  0.00000000E+00
  0.00000000E+00  0.00000000E+00  0.00000000E+00
  0.00000000E+00  0.00000000E+00  0.00000000E+00
  0.00000000E+00  0.00000000E+00  0.00000000E+00
  0.00000000E+00  0.00000000E+00  0.00000000E+00
  0.00000000E+00  0.00000000E+00  0.00000000E+00
  0.00000000E+00  0.00000000E+00  0.00000000E+00
