RbBiS2 phase
   1.0000000000000000     
     4.1918226290330134    0.0000000000000000   -0.0000000000000000
    -2.0959113145165067    3.6302248848460792    0.0000000000000000
     0.0000000000000000    0.0000000000000000   23.2200433337765197
   Rb   Bi   S 
     3     3     6
Direct
  0.3333333300000021  0.6666666699999979  0.1666666699999979
 -0.0000000000000000 -0.0000000000000000  0.5000000000000000
  0.6666666699999979  0.3333333300000021  0.8333333300000021
 -0.0000000000000000 -0.0000000000000000  0.0000000000000000
  0.6666666699999979  0.3333333300000021  0.3333333300000021
  0.3333333300000021  0.6666666699999979  0.6666666699999979
  0.6666666699999979  0.3333333300000021  0.0671335379912563
  0.0000000000000000 -0.0000000000000000  0.2661997920087386
  0.3333333300000021  0.6666666699999979  0.4004668779912593
  0.6666666699999979  0.3333333300000021  0.5995331220087408
 -0.0000000000000000  0.0000000000000000  0.7338002079912613
  0.3333333300000021  0.6666666699999979  0.9328664620087437

  0.00000000E+00  0.00000000E+00  0.00000000E+00
  0.00000000E+00  0.00000000E+00  0.00000000E+00
  0.00000000E+00  0.00000000E+00  0.00000000E+00
  0.00000000E+00  0.00000000E+00  0.00000000E+00
  0.00000000E+00  0.00000000E+00  0.00000000E+00
  0.00000000E+00  0.00000000E+00  0.00000000E+00
  0.00000000E+00  0.00000000E+00  0.00000000E+00
  0.00000000E+00  0.00000000E+00  0.00000000E+00
  0.00000000E+00  0.00000000E+00  0.00000000E+00
  0.00000000E+00  0.00000000E+00  0.00000000E+00
  0.00000000E+00  0.00000000E+00  0.00000000E+00
  0.00000000E+00  0.00000000E+00  0.00000000E+00
