NaSbS2 phase
   1.0000000000000000     
     8.4292306309273268    0.0000000000000000   -0.0857033766291185
     0.0000000000000000    8.5525382006572421    0.0000000000000000
    -4.0224214076270606    0.0000000000000000    6.1988164083845128
   Na   Bi   Se
     4     4     8
Direct
  0.5000000000000000  0.1281488135538576  0.2500000000000000
  0.5000000000000000  0.8718511714461377  0.7500000000000000
  0.0000000000000000  0.6281488285538623  0.2500000000000000
  0.0000000000000000  0.3718511714461377  0.7500000000000000
  0.5000000000000000  0.3984531080347437  0.7500000000000000
  0.5000000000000000  0.6015469219652589  0.2500000000000000
  0.0000000000000000  0.8984530780347411  0.7500000000000000
  0.0000000000000000  0.1015469069652611  0.2500000000000000
  0.2385805319446994  0.8834296193192506  0.2318937792804633
  0.7614194680553006  0.8834296193192506  0.2681062347195379
  0.7614194680553006  0.1165703876807464  0.7681062347195379
  0.2385805319446994  0.1165703876807464  0.7318937652804621
  0.7385805319446994  0.3834296193192506  0.2318937792804633
  0.2614194680553007  0.3834296193192506  0.2681062347195379
  0.2614194680553007  0.6165703806807494  0.7681062347195379
  0.7385805319446994  0.6165703806807494  0.7318937652804621

  0.00000000E+00  0.00000000E+00  0.00000000E+00
  0.00000000E+00  0.00000000E+00  0.00000000E+00
  0.00000000E+00  0.00000000E+00  0.00000000E+00
  0.00000000E+00  0.00000000E+00  0.00000000E+00
  0.00000000E+00  0.00000000E+00  0.00000000E+00
  0.00000000E+00  0.00000000E+00  0.00000000E+00
  0.00000000E+00  0.00000000E+00  0.00000000E+00
  0.00000000E+00  0.00000000E+00  0.00000000E+00
  0.00000000E+00  0.00000000E+00  0.00000000E+00
  0.00000000E+00  0.00000000E+00  0.00000000E+00
  0.00000000E+00  0.00000000E+00  0.00000000E+00
  0.00000000E+00  0.00000000E+00  0.00000000E+00
  0.00000000E+00  0.00000000E+00  0.00000000E+00
  0.00000000E+00  0.00000000E+00  0.00000000E+00
  0.00000000E+00  0.00000000E+00  0.00000000E+00
  0.00000000E+00  0.00000000E+00  0.00000000E+00
