HSE06 band gap calculation, step 2
ISMEAR=-5
LWAVE = .FALSE.
LCHARG = .FALSE.
PREC= Normal
ENCUT = 400
EDIFF=1E-5
EDIFFG=-0.5E-3
ISIF=3
IBRION=2
POTIM=0.01
NSW = 1
LHFCALC = .TRUE.
HFSCREEN = 0.2    ! Currently set up for HSE06. Comment out this line for PBE0.
ALGO = Normal
TIME = 0.4
PRECFOCK = Fast
LMAXMIX = 4
