NaSbS2 phase
   1.0000000000000000     
     9.3574456695459585    0.0000000000000000    0.5271472220985789
     0.0000000000000000   10.4637553216313659    0.0000000000000000
    -4.0488028152376874    0.0000000000000000    6.1171072957513406
   Rb   Sb   Se
     4     4     8
Direct
  0.5000000000000000  0.1493931993685397  0.2500000000000000
  0.5000000000000000  0.8506067856314553  0.7500000000000000
  0.0000000000000000  0.6493932143685447  0.2500000000000000
  0.0000000000000000  0.3506067856314556  0.7500000000000000
  0.5000000000000000  0.4239748776337551  0.7500000000000000
  0.5000000000000000  0.5760251523662472  0.2500000000000000
  0.0000000000000000  0.9239748476337528  0.7500000000000000
  0.0000000000000000  0.0760251373662496  0.2500000000000000
  0.2032062086439721  0.9245706896959118  0.2122764649354101
  0.7967937913560279  0.9245706896959118  0.2877235490645910
  0.7967937913560279  0.0754293173040853  0.7877235490645910
  0.2032062086439721  0.0754293173040853  0.7122764509354090
  0.7032062086439721  0.4245706896959118  0.2122764649354101
  0.2967937913560280  0.4245706896959118  0.2877235490645910
  0.2967937913560280  0.5754293103040882  0.7877235490645910
  0.7032062086439721  0.5754293103040882  0.7122764509354090

  0.00000000E+00  0.00000000E+00  0.00000000E+00
  0.00000000E+00  0.00000000E+00  0.00000000E+00
  0.00000000E+00  0.00000000E+00  0.00000000E+00
  0.00000000E+00  0.00000000E+00  0.00000000E+00
  0.00000000E+00  0.00000000E+00  0.00000000E+00
  0.00000000E+00  0.00000000E+00  0.00000000E+00
  0.00000000E+00  0.00000000E+00  0.00000000E+00
  0.00000000E+00  0.00000000E+00  0.00000000E+00
  0.00000000E+00  0.00000000E+00  0.00000000E+00
  0.00000000E+00  0.00000000E+00  0.00000000E+00
  0.00000000E+00  0.00000000E+00  0.00000000E+00
  0.00000000E+00  0.00000000E+00  0.00000000E+00
  0.00000000E+00  0.00000000E+00  0.00000000E+00
  0.00000000E+00  0.00000000E+00  0.00000000E+00
  0.00000000E+00  0.00000000E+00  0.00000000E+00
  0.00000000E+00  0.00000000E+00  0.00000000E+00
