RbBiS2 phase
   1.0000000000000000     
     4.3184107757179557    0.0000000000000000   -0.0000000000000000
    -2.1592053878589779    3.7398534356883339    0.0000000000000000
     0.0000000000000000    0.0000000000000000   23.3093012392052650
   Na   Bi   Se
     3     3     6
Direct
  0.3333333300000021  0.6666666699999979  0.1666666699999979
  0.0000000000000000  0.0000000000000000  0.5000000000000000
  0.6666666699999979  0.3333333300000021  0.8333333300000021
  0.0000000000000000  0.0000000000000000  0.0000000000000000
  0.6666666699999979  0.3333333300000021  0.3333333300000021
  0.3333333300000021  0.6666666699999979  0.6666666699999979
  0.6666666699999979  0.3333333300000021  0.0709690106803151
  0.0000000000000000  0.0000000000000000  0.2623643193196799
  0.3333333300000021  0.6666666699999979  0.4043023506803181
  0.6666666699999979  0.3333333300000021  0.5956976493196819
  0.0000000000000000  0.0000000000000000  0.7376356806803201
  0.3333333300000021  0.6666666699999979  0.9290309893196849

  0.00000000E+00  0.00000000E+00  0.00000000E+00
  0.00000000E+00  0.00000000E+00  0.00000000E+00
  0.00000000E+00  0.00000000E+00  0.00000000E+00
  0.00000000E+00  0.00000000E+00  0.00000000E+00
  0.00000000E+00  0.00000000E+00  0.00000000E+00
  0.00000000E+00  0.00000000E+00  0.00000000E+00
  0.00000000E+00  0.00000000E+00  0.00000000E+00
  0.00000000E+00  0.00000000E+00  0.00000000E+00
  0.00000000E+00  0.00000000E+00  0.00000000E+00
  0.00000000E+00  0.00000000E+00  0.00000000E+00
  0.00000000E+00  0.00000000E+00  0.00000000E+00
  0.00000000E+00  0.00000000E+00  0.00000000E+00
