RbBiS2 phase
   1.0000000000000000     
     3.9822713592773717    0.0000000000000000    0.0000000000000000
    -1.9911356796386859    3.4487481618508564   -0.0000000000000000
     0.0000000000000000    0.0000000000000001   20.3285567053943730
   Na   Sb   S 
     3     3     6
Direct
  0.3333333300000021  0.6666666699999979  0.1666666699999979
  0.0000000000000000  0.0000000000000000  0.5000000000000000
  0.6666666699999979  0.3333333300000021  0.8333333300000021
  0.0000000000000000  0.0000000000000000  0.0000000000000000
  0.6666666699999979  0.3333333300000021  0.3333333300000021
  0.3333333300000021  0.6666666699999979  0.6666666699999979
  0.6666666699999979  0.3333333300000021  0.0771639364979322
  0.0000000000000000  0.0000000000000000  0.2561693935020628
  0.3333333300000021  0.6666666699999979  0.4104972764979351
  0.6666666699999979  0.3333333300000021  0.5895027235020649
  0.0000000000000000  0.0000000000000000  0.7438306064979372
  0.3333333300000021  0.6666666699999979  0.9228360635020678

  0.00000000E+00  0.00000000E+00  0.00000000E+00
  0.00000000E+00  0.00000000E+00  0.00000000E+00
  0.00000000E+00  0.00000000E+00  0.00000000E+00
  0.00000000E+00  0.00000000E+00  0.00000000E+00
  0.00000000E+00  0.00000000E+00  0.00000000E+00
  0.00000000E+00  0.00000000E+00  0.00000000E+00
  0.00000000E+00  0.00000000E+00  0.00000000E+00
  0.00000000E+00  0.00000000E+00  0.00000000E+00
  0.00000000E+00  0.00000000E+00  0.00000000E+00
  0.00000000E+00  0.00000000E+00  0.00000000E+00
  0.00000000E+00  0.00000000E+00  0.00000000E+00
  0.00000000E+00  0.00000000E+00  0.00000000E+00
