NaSbS2 phase
   1.0000000000000000     
     7.9146994887366162    0.0000000000000000    0.1763452414966486
     0.0000000000000000    8.4724075005895525    0.0000000000000000
    -3.6057472057532394    0.0000000000000000    5.4872248779647101
   Na   As   S 
     4     4     8
Direct
  0.5000000000000000  0.1380338174205234  0.2500000000000000
  0.5000000000000000  0.8619661675794719  0.7500000000000000
  0.0000000000000000  0.6380338324205281  0.2500000000000000
  0.0000000000000000  0.3619661675794718  0.7500000000000000
  0.5000000000000000  0.4200373689376312  0.7500000000000000
  0.5000000000000000  0.5799626610623714  0.2500000000000000
  0.0000000000000000  0.9200373389376286  0.7500000000000000
  0.0000000000000000  0.0799626460623736  0.2500000000000000
  0.2141718129361808  0.9125862729495857  0.2257882939652899
  0.7858281870638192  0.9125862729495857  0.2742117200347112
  0.7858281870638192  0.0874137340504113  0.7742117200347113
  0.2141718129361808  0.0874137340504113  0.7257882799652887
  0.7141718129361808  0.4125862729495857  0.2257882939652899
  0.2858281870638192  0.4125862729495857  0.2742117200347112
  0.2858281870638192  0.5874137270504143  0.7742117200347113
  0.7141718129361808  0.5874137270504143  0.7257882799652887

  0.00000000E+00  0.00000000E+00  0.00000000E+00
  0.00000000E+00  0.00000000E+00  0.00000000E+00
  0.00000000E+00  0.00000000E+00  0.00000000E+00
  0.00000000E+00  0.00000000E+00  0.00000000E+00
  0.00000000E+00  0.00000000E+00  0.00000000E+00
  0.00000000E+00  0.00000000E+00  0.00000000E+00
  0.00000000E+00  0.00000000E+00  0.00000000E+00
  0.00000000E+00  0.00000000E+00  0.00000000E+00
  0.00000000E+00  0.00000000E+00  0.00000000E+00
  0.00000000E+00  0.00000000E+00  0.00000000E+00
  0.00000000E+00  0.00000000E+00  0.00000000E+00
  0.00000000E+00  0.00000000E+00  0.00000000E+00
  0.00000000E+00  0.00000000E+00  0.00000000E+00
  0.00000000E+00  0.00000000E+00  0.00000000E+00
  0.00000000E+00  0.00000000E+00  0.00000000E+00
  0.00000000E+00  0.00000000E+00  0.00000000E+00
