NaSbS2 phase
   1.0000000000000000     
     8.1120864839504385    0.0000000000000000   -0.0728239932738930
     0.0000000000000000    8.1827309134108255    0.0000000000000000
    -3.8638110893769526    0.0000000000000000    5.9391844637187337
   Na   Bi   S 
     4     4     8
Direct
  0.5000000000000000  0.1264562491772254  0.2500000000000000
  0.5000000000000000  0.8735437358227699  0.7500000000000000
  0.0000000000000000  0.6264562641772301  0.2500000000000000
  0.0000000000000000  0.3735437358227698  0.7500000000000000
  0.5000000000000000  0.3943451528358473  0.7500000000000000
  0.5000000000000000  0.6056548771641553  0.2500000000000000
  0.0000000000000000  0.8943451228358447  0.7500000000000000
  0.0000000000000000  0.1056548621641576  0.2500000000000000
  0.2343987608715263  0.8858914918243221  0.2318181448932274
  0.7656012391284738  0.8858914918243221  0.2681818691067737
  0.7656012391284738  0.1141085151756820  0.7681818691067736
  0.2343987608715263  0.1141085151756820  0.7318181308932264
  0.7343987608715262  0.3858914918243221  0.2318181448932274
  0.2656012391284737  0.3858914918243221  0.2681818691067737
  0.2656012391284737  0.6141085081756779  0.7681818691067736
  0.7343987608715262  0.6141085081756779  0.7318181308932264

  0.00000000E+00  0.00000000E+00  0.00000000E+00
  0.00000000E+00  0.00000000E+00  0.00000000E+00
  0.00000000E+00  0.00000000E+00  0.00000000E+00
  0.00000000E+00  0.00000000E+00  0.00000000E+00
  0.00000000E+00  0.00000000E+00  0.00000000E+00
  0.00000000E+00  0.00000000E+00  0.00000000E+00
  0.00000000E+00  0.00000000E+00  0.00000000E+00
  0.00000000E+00  0.00000000E+00  0.00000000E+00
  0.00000000E+00  0.00000000E+00  0.00000000E+00
  0.00000000E+00  0.00000000E+00  0.00000000E+00
  0.00000000E+00  0.00000000E+00  0.00000000E+00
  0.00000000E+00  0.00000000E+00  0.00000000E+00
  0.00000000E+00  0.00000000E+00  0.00000000E+00
  0.00000000E+00  0.00000000E+00  0.00000000E+00
  0.00000000E+00  0.00000000E+00  0.00000000E+00
  0.00000000E+00  0.00000000E+00  0.00000000E+00
