RbBiS2 phase
   1.0000000000000000     
     4.0593722461212618    0.0000000000000000    0.0000000000000000
    -2.0296861230606309    3.5155194885087400    0.0000000000000000
    -0.0000000000000000    0.0000000000000000   23.8784206495117672
   Rb   As   Se
     3     3     6
Direct
  0.3333333300000021  0.6666666699999979  0.1666666699999979
  0.0000000000000000 -0.0000000000000000  0.5000000000000000
  0.6666666699999979  0.3333333300000021  0.8333333300000021
 -0.0000000000000000 -0.0000000000000000  0.0000000000000000
  0.6666666699999979  0.3333333300000021  0.3333333300000021
  0.3333333300000021  0.6666666699999979  0.6666666699999979
  0.6666666699999979  0.3333333300000021  0.0615710962391427
  0.0000000000000000 -0.0000000000000000  0.2717622337608523
  0.3333333300000021  0.6666666699999979  0.3949044362391456
  0.6666666699999979  0.3333333300000021  0.6050955637608543
 -0.0000000000000000  0.0000000000000000  0.7282377662391478
  0.3333333300000021  0.6666666699999979  0.9384289037608572

  0.00000000E+00  0.00000000E+00  0.00000000E+00
  0.00000000E+00  0.00000000E+00  0.00000000E+00
  0.00000000E+00  0.00000000E+00  0.00000000E+00
  0.00000000E+00  0.00000000E+00  0.00000000E+00
  0.00000000E+00  0.00000000E+00  0.00000000E+00
  0.00000000E+00  0.00000000E+00  0.00000000E+00
  0.00000000E+00  0.00000000E+00  0.00000000E+00
  0.00000000E+00  0.00000000E+00  0.00000000E+00
  0.00000000E+00  0.00000000E+00  0.00000000E+00
  0.00000000E+00  0.00000000E+00  0.00000000E+00
  0.00000000E+00  0.00000000E+00  0.00000000E+00
  0.00000000E+00  0.00000000E+00  0.00000000E+00
