RbBiS2 phase
   1.0000000000000000     
     4.0257199279577929    0.0000000000000000    0.0000000000000000
    -2.0128599639788964    3.4863757260841428    0.0000000000000000
    -0.0000000000000000    0.0000000000000000   23.0228963203719879
   K    As   Se
     3     3     6
Direct
  0.3333333300000021  0.6666666699999979  0.1666666699999979
 -0.0000000000000000  0.0000000000000000  0.5000000000000000
  0.6666666699999979  0.3333333300000021  0.8333333300000021
  0.0000000000000000  0.0000000000000000  0.0000000000000000
  0.6666666699999979  0.3333333300000021  0.3333333300000021
  0.3333333300000021  0.6666666699999979  0.6666666699999979
  0.6666666699999979  0.3333333300000021  0.0644403329854309
 -0.0000000000000000  0.0000000000000000  0.2688929970145640
  0.3333333300000021  0.6666666699999979  0.3977736729854339
  0.6666666699999979  0.3333333300000021  0.6022263270145664
  0.0000000000000000 -0.0000000000000000  0.7311070029854357
  0.3333333300000021  0.6666666699999979  0.9355596670145693

  0.00000000E+00  0.00000000E+00  0.00000000E+00
  0.00000000E+00  0.00000000E+00  0.00000000E+00
  0.00000000E+00  0.00000000E+00  0.00000000E+00
  0.00000000E+00  0.00000000E+00  0.00000000E+00
  0.00000000E+00  0.00000000E+00  0.00000000E+00
  0.00000000E+00  0.00000000E+00  0.00000000E+00
  0.00000000E+00  0.00000000E+00  0.00000000E+00
  0.00000000E+00  0.00000000E+00  0.00000000E+00
  0.00000000E+00  0.00000000E+00  0.00000000E+00
  0.00000000E+00  0.00000000E+00  0.00000000E+00
  0.00000000E+00  0.00000000E+00  0.00000000E+00
  0.00000000E+00  0.00000000E+00  0.00000000E+00
