RbBiS2 phase
   1.0000000000000000     
     3.8825246809750884    0.0000000000000000    0.0000000000000000
    -1.9412623404875442    3.3623650045014850   -0.0000000000000000
     0.0000000000000000    0.0000000000000000   22.8688483166672007
   Rb   As   S 
     3     3     6
Direct
  0.3333333300000021  0.6666666699999979  0.1666666699999979
  0.0000000000000000  0.0000000000000000  0.5000000000000000
  0.6666666699999979  0.3333333300000021  0.8333333300000021
  0.0000000000000000  0.0000000000000000  0.0000000000000000
  0.6666666699999979  0.3333333300000021  0.3333333300000021
  0.3333333300000021  0.6666666699999979  0.6666666699999979
  0.6666666699999979  0.3333333300000021  0.0610621643703792
 -0.0000000000000000 -0.0000000000000000  0.2722711656296158
  0.3333333300000021  0.6666666699999979  0.3943955043703821
  0.6666666699999979  0.3333333300000021  0.6056044956296180
  0.0000000000000000  0.0000000000000000  0.7277288343703840
  0.3333333300000021  0.6666666699999979  0.9389378356296210

  0.00000000E+00  0.00000000E+00  0.00000000E+00
  0.00000000E+00  0.00000000E+00  0.00000000E+00
  0.00000000E+00  0.00000000E+00  0.00000000E+00
  0.00000000E+00  0.00000000E+00  0.00000000E+00
  0.00000000E+00  0.00000000E+00  0.00000000E+00
  0.00000000E+00  0.00000000E+00  0.00000000E+00
  0.00000000E+00  0.00000000E+00  0.00000000E+00
  0.00000000E+00  0.00000000E+00  0.00000000E+00
  0.00000000E+00  0.00000000E+00  0.00000000E+00
  0.00000000E+00  0.00000000E+00  0.00000000E+00
  0.00000000E+00  0.00000000E+00  0.00000000E+00
  0.00000000E+00  0.00000000E+00  0.00000000E+00
