NaSbS2 phase
   1.0000000000000000     
     8.4741756589993855    0.0000000000000000    0.5466621710018126
     0.0000000000000000    9.7760253816058889    0.0000000000000000
    -3.6270627260389703    0.0000000000000000    5.5275123867648102
   K    As   S 
     4     4     8
Direct
  0.5000000000000000  0.1496201321980676  0.2500000000000000
  0.5000000000000000  0.8503798528019275  0.7500000000000000
 -0.0000000000000000  0.6496201471980725  0.2500000000000000
 -0.0000000000000000  0.3503798528019276  0.7500000000000000
  0.5000000000000000  0.4333374329503529  0.7500000000000000
  0.5000000000000000  0.5666625970496496  0.2500000000000000
 -0.0000000000000000  0.9333374029503504  0.7500000000000000
  0.0000000000000000  0.0666625820496519  0.2500000000000000
  0.1973019795962288  0.9273705480299254  0.2108533642178466
  0.8026980204037714  0.9273705480299254  0.2891466497821546
  0.8026980204037714  0.0726294589700718  0.7891466497821545
  0.1973019795962288  0.0726294589700718  0.7108533502178455
  0.6973019795962286  0.4273705480299252  0.2108533642178466
  0.3026980204037713  0.4273705480299252  0.2891466497821546
  0.3026980204037713  0.5726294519700746  0.7891466497821545
  0.6973019795962286  0.5726294519700746  0.7108533502178455

  0.00000000E+00  0.00000000E+00  0.00000000E+00
  0.00000000E+00  0.00000000E+00  0.00000000E+00
  0.00000000E+00  0.00000000E+00  0.00000000E+00
  0.00000000E+00  0.00000000E+00  0.00000000E+00
  0.00000000E+00  0.00000000E+00  0.00000000E+00
  0.00000000E+00  0.00000000E+00  0.00000000E+00
  0.00000000E+00  0.00000000E+00  0.00000000E+00
  0.00000000E+00  0.00000000E+00  0.00000000E+00
  0.00000000E+00  0.00000000E+00  0.00000000E+00
  0.00000000E+00  0.00000000E+00  0.00000000E+00
  0.00000000E+00  0.00000000E+00  0.00000000E+00
  0.00000000E+00  0.00000000E+00  0.00000000E+00
  0.00000000E+00  0.00000000E+00  0.00000000E+00
  0.00000000E+00  0.00000000E+00  0.00000000E+00
  0.00000000E+00  0.00000000E+00  0.00000000E+00
  0.00000000E+00  0.00000000E+00  0.00000000E+00
