NaSbS2 phase
   1.0000000000000000     
     7.7174390966607156    0.0000000000000000   -0.0598382470408857
     0.0000000000000000    8.1172775518201163    0.0000000000000000
    -3.6897699581483376    0.0000000000000000    5.7103169871392918
   Li   As   Se
     4     4     8
Direct
  0.5000000000000000  0.1289400908895716  0.2500000000000000
  0.5000000000000000  0.8710598941104235  0.7500000000000000
 -0.0000000000000000  0.6289401058895765  0.2500000000000000
 -0.0000000000000000  0.3710598941104236  0.7500000000000000
  0.5000000000000000  0.4155750229679023  0.7500000000000000
  0.5000000000000000  0.5844250070321001  0.2500000000000000
 -0.0000000000000000  0.9155749929678999  0.7500000000000000
 -0.0000000000000000  0.0844249920321024  0.2500000000000000
  0.2379168892862883  0.8938531115245623  0.2359019184109752
  0.7620831107137117  0.8938531115245623  0.2640980955890259
  0.7620831107137117  0.1061468954754346  0.7640980955890260
  0.2379168892862883  0.1061468954754346  0.7359019044109740
  0.7379168892862883  0.3938531115245625  0.2359019184109752
  0.2620831107137117  0.3938531115245625  0.2640980955890259
  0.2620831107137117  0.6061468884754377  0.7640980955890260
  0.7379168892862883  0.6061468884754377  0.7359019044109740

  0.00000000E+00  0.00000000E+00  0.00000000E+00
  0.00000000E+00  0.00000000E+00  0.00000000E+00
  0.00000000E+00  0.00000000E+00  0.00000000E+00
  0.00000000E+00  0.00000000E+00  0.00000000E+00
  0.00000000E+00  0.00000000E+00  0.00000000E+00
  0.00000000E+00  0.00000000E+00  0.00000000E+00
  0.00000000E+00  0.00000000E+00  0.00000000E+00
  0.00000000E+00  0.00000000E+00  0.00000000E+00
  0.00000000E+00  0.00000000E+00  0.00000000E+00
  0.00000000E+00  0.00000000E+00  0.00000000E+00
  0.00000000E+00  0.00000000E+00  0.00000000E+00
  0.00000000E+00  0.00000000E+00  0.00000000E+00
  0.00000000E+00  0.00000000E+00  0.00000000E+00
  0.00000000E+00  0.00000000E+00  0.00000000E+00
  0.00000000E+00  0.00000000E+00  0.00000000E+00
  0.00000000E+00  0.00000000E+00  0.00000000E+00
