RbBiS2 phase
   1.0000000000000000     
     4.2690362076000827    0.0000000000000000    0.0000000000000000
    -2.1345181038000414    3.6970938053992932    0.0000000000000000
     0.0000000000000000    0.0000000000000000   24.1404648168267109
   Rb   Sb   Se
     3     3     6
Direct
  0.3333333300000021  0.6666666699999979  0.1666666699999979
 -0.0000000000000000 -0.0000000000000000  0.5000000000000000
  0.6666666699999979  0.3333333300000021  0.8333333300000021
  0.0000000000000000 -0.0000000000000000  0.0000000000000000
  0.6666666699999979  0.3333333300000021  0.3333333300000021
  0.3333333300000021  0.6666666699999979  0.6666666699999979
  0.6666666699999979  0.3333333300000021  0.0660562759754405
 -0.0000000000000000 -0.0000000000000000  0.2672770540245545
  0.3333333300000021  0.6666666699999979  0.3993896159754434
  0.6666666699999979  0.3333333300000021  0.6006103840245565
  0.0000000000000000 -0.0000000000000000  0.7327229459754456
  0.3333333300000021  0.6666666699999979  0.9339437240245594

  0.00000000E+00  0.00000000E+00  0.00000000E+00
  0.00000000E+00  0.00000000E+00  0.00000000E+00
  0.00000000E+00  0.00000000E+00  0.00000000E+00
  0.00000000E+00  0.00000000E+00  0.00000000E+00
  0.00000000E+00  0.00000000E+00  0.00000000E+00
  0.00000000E+00  0.00000000E+00  0.00000000E+00
  0.00000000E+00  0.00000000E+00  0.00000000E+00
  0.00000000E+00  0.00000000E+00  0.00000000E+00
  0.00000000E+00  0.00000000E+00  0.00000000E+00
  0.00000000E+00  0.00000000E+00  0.00000000E+00
  0.00000000E+00  0.00000000E+00  0.00000000E+00
  0.00000000E+00  0.00000000E+00  0.00000000E+00
