NaAsS2 phase
   1.0000000000000000     
     5.7685341966629613    0.0000000000000000    0.0007432416838708
     0.0000000000000000   11.6135701553483468    0.0000000000000000
    -0.0167136589570632    0.0000000000000000    5.9685852677991358
   Na   Bi   S 
     4     4     8
Direct
  0.7507448073423205  0.3746284146275287  0.5019760259162788
  0.2492551926576795  0.6253715853724785  0.4980239740837212
  0.2507448073423205  0.1253715703724808  0.5019760259162788
  0.7492551926576795  0.8746284146275215  0.4980239740837212
  0.7527128895537213  0.6297440955519543  0.9512119808609658
  0.7472871104462787  0.1297441105519449  0.0487880261390241
  0.2472871404462812  0.3702559044480528  0.0487880261390241
  0.2527128595537188  0.8702559044480457  0.9512119808609658
  0.7447869491578339  0.8674857335894718  0.0028177085316159
  0.2447869341578362  0.6325142664105282  0.0028177085316159
  0.7552130508421661  0.3674857335894647  0.9971822684683858
  0.2552130508421661  0.1325142804105365  0.9971822684683858
  0.2492385058052033  0.8753563572534897  0.5352858381394885
  0.2507614791947990  0.3753563572534826  0.4647141618605116
  0.7507614791947990  0.1246436427465174  0.4647141618605116
  0.7492385208052010  0.6246436427465103  0.5352858381394885

  0.00000000E+00  0.00000000E+00  0.00000000E+00
  0.00000000E+00  0.00000000E+00  0.00000000E+00
  0.00000000E+00  0.00000000E+00  0.00000000E+00
  0.00000000E+00  0.00000000E+00  0.00000000E+00
  0.00000000E+00  0.00000000E+00  0.00000000E+00
  0.00000000E+00  0.00000000E+00  0.00000000E+00
  0.00000000E+00  0.00000000E+00  0.00000000E+00
  0.00000000E+00  0.00000000E+00  0.00000000E+00
  0.00000000E+00  0.00000000E+00  0.00000000E+00
  0.00000000E+00  0.00000000E+00  0.00000000E+00
  0.00000000E+00  0.00000000E+00  0.00000000E+00
  0.00000000E+00  0.00000000E+00  0.00000000E+00
  0.00000000E+00  0.00000000E+00  0.00000000E+00
  0.00000000E+00  0.00000000E+00  0.00000000E+00
  0.00000000E+00  0.00000000E+00  0.00000000E+00
  0.00000000E+00  0.00000000E+00  0.00000000E+00
