RbBiS2 phase
   1.0000000000000000     
     3.6830050767746503   -0.0000000000000000    0.0000000000000000
    -1.8415025383873251    3.1895759587180925   -0.0000000000000000
     0.0000000000000000   -0.0000000000000000   18.4286822404691257
   Li   As   S 
     3     3     6
Direct
  0.3333333300000021  0.6666666699999979  0.1666666699999979
  0.0000000000000000  0.0000000000000000  0.5000000000000000
  0.6666666699999979  0.3333333300000021  0.8333333300000021
  0.0000000000000000  0.0000000000000000 -0.0000000000000000
  0.6666666699999979  0.3333333300000021  0.3333333300000021
  0.3333333300000021  0.6666666699999979  0.6666666699999979
  0.6666666699999979  0.3333333300000021  0.0802167742998488
 -0.0000000000000000 -0.0000000000000000  0.2531165557001463
  0.3333333300000021  0.6666666699999979  0.4135501142998516
  0.6666666699999979  0.3333333300000021  0.5864498857001483
 -0.0000000000000000  0.0000000000000000  0.7468834442998538
  0.3333333300000021  0.6666666699999979  0.9197832257001513

  0.00000000E+00  0.00000000E+00  0.00000000E+00
  0.00000000E+00  0.00000000E+00  0.00000000E+00
  0.00000000E+00  0.00000000E+00  0.00000000E+00
  0.00000000E+00  0.00000000E+00  0.00000000E+00
  0.00000000E+00  0.00000000E+00  0.00000000E+00
  0.00000000E+00  0.00000000E+00  0.00000000E+00
  0.00000000E+00  0.00000000E+00  0.00000000E+00
  0.00000000E+00  0.00000000E+00  0.00000000E+00
  0.00000000E+00  0.00000000E+00  0.00000000E+00
  0.00000000E+00  0.00000000E+00  0.00000000E+00
  0.00000000E+00  0.00000000E+00  0.00000000E+00
  0.00000000E+00  0.00000000E+00  0.00000000E+00
