NaAsS2 phase   
   1.0000000000000000     
     5.6513439740326969    0.0000000000000000   -0.0453149837032503
     0.0000000000000000   11.7098633642537262    0.0000000000000000
    -0.0671467545874980    0.0000000000000000    5.9605042085101481
   Na   As   S 
     4     4     8
Direct
  0.7559579758567230  0.3748626926592147  0.5125711543690845
  0.2440420241432768  0.6251373073407852  0.4874288456309154
  0.2559579758567231  0.1251372923407875  0.5125711543690845
  0.7440420241432770  0.8748626926592148  0.4874288456309154
  0.7716911932347352  0.6458396225857416  0.9296656811150278
  0.7283088067652648  0.1458396375857387  0.0703343258849693
  0.2283088367652673  0.3541603774142590  0.0703343258849693
  0.2716911632347327  0.8541603774142584  0.9296656811150278
  0.6857118031170791  0.8399460825554367  0.9924853032503353
  0.1857117881170816  0.6600539174445633  0.9924853032503353
  0.8142881968829209  0.3399460825554366  0.0075146737496663
  0.3142881968829206  0.1600539314445647  0.0075146737496663
  0.2447486285973333  0.8738220295550742  0.5631241614887050
  0.2552513564026689  0.3738220295550739  0.4368758385112952
  0.7552513564026689  0.1261779704449260  0.4368758385112952
  0.7447486435973311  0.6261779704449258  0.5631241614887050

  0.00000000E+00  0.00000000E+00  0.00000000E+00
  0.00000000E+00  0.00000000E+00  0.00000000E+00
  0.00000000E+00  0.00000000E+00  0.00000000E+00
  0.00000000E+00  0.00000000E+00  0.00000000E+00
  0.00000000E+00  0.00000000E+00  0.00000000E+00
  0.00000000E+00  0.00000000E+00  0.00000000E+00
  0.00000000E+00  0.00000000E+00  0.00000000E+00
  0.00000000E+00  0.00000000E+00  0.00000000E+00
  0.00000000E+00  0.00000000E+00  0.00000000E+00
  0.00000000E+00  0.00000000E+00  0.00000000E+00
  0.00000000E+00  0.00000000E+00  0.00000000E+00
  0.00000000E+00  0.00000000E+00  0.00000000E+00
  0.00000000E+00  0.00000000E+00  0.00000000E+00
  0.00000000E+00  0.00000000E+00  0.00000000E+00
  0.00000000E+00  0.00000000E+00  0.00000000E+00
  0.00000000E+00  0.00000000E+00  0.00000000E+00
