NaSbS2 phase
   1.0000000000000000     
     9.0838329965888995    0.0000000000000000    0.2134050731250871
     0.0000000000000000    9.6374682369632101    0.0000000000000000
    -4.1295893313737499    0.0000000000000000    6.3070180528806770
   K    Bi   Se
     4     4     8
Direct
  0.5000000000000000  0.1326982708118498  0.2500000000000000
  0.5000000000000000  0.8673017141881454  0.7500000000000000
 -0.0000000000000000  0.6326982858118546  0.2500000000000000
 -0.0000000000000000  0.3673017141881454  0.7500000000000000
  0.5000000000000000  0.4223532058029361  0.7500000000000000
  0.5000000000000000  0.5776468241970664  0.2500000000000000
 -0.0000000000000000  0.9223531758029336  0.7500000000000000
 -0.0000000000000000  0.0776468091970687  0.2500000000000000
  0.2163985995507578  0.9001263327357899  0.2168901706607909
  0.7836014004492422  0.9001263327357899  0.2831098433392102
  0.7836014004492422  0.0998736742642070  0.7831098433392102
  0.2163985995507578  0.0998736742642070  0.7168901566607898
  0.7163985995507578  0.4001263327357900  0.2168901706607909
  0.2836014004492422  0.4001263327357900  0.2831098433392102
  0.2836014004492422  0.5998736672642101  0.7831098433392102
  0.7163985995507578  0.5998736672642101  0.7168901566607898

  0.00000000E+00  0.00000000E+00  0.00000000E+00
  0.00000000E+00  0.00000000E+00  0.00000000E+00
  0.00000000E+00  0.00000000E+00  0.00000000E+00
  0.00000000E+00  0.00000000E+00  0.00000000E+00
  0.00000000E+00  0.00000000E+00  0.00000000E+00
  0.00000000E+00  0.00000000E+00  0.00000000E+00
  0.00000000E+00  0.00000000E+00  0.00000000E+00
  0.00000000E+00  0.00000000E+00  0.00000000E+00
  0.00000000E+00  0.00000000E+00  0.00000000E+00
  0.00000000E+00  0.00000000E+00  0.00000000E+00
  0.00000000E+00  0.00000000E+00  0.00000000E+00
  0.00000000E+00  0.00000000E+00  0.00000000E+00
  0.00000000E+00  0.00000000E+00  0.00000000E+00
  0.00000000E+00  0.00000000E+00  0.00000000E+00
  0.00000000E+00  0.00000000E+00  0.00000000E+00
  0.00000000E+00  0.00000000E+00  0.00000000E+00
