NaAsS2 phase
   1.0000000000000000     
     6.4935793873475394    0.0000000000000000   -0.0099331692520473
     0.0000000000000000   13.1578417202140958    0.0000000000000000
    -0.0303396182251031    0.0000000000000000    6.8442088359552118
   K    Bi   Se
     4     4     8
Direct
  0.7623931400249303  0.3729081652621596  0.4914437321487120
  0.2376068599750696  0.6270918347378404  0.5085562678512880
  0.2623931400249302  0.1270918197378426  0.4914437321487120
  0.7376068599750697  0.8729081652621596  0.5085562678512880
  0.7652932471637089  0.6427986365362267  0.9552791105110237
  0.7347067528362911  0.1427986515362246  0.0447208964889734
  0.2347067828362937  0.3572013634637731  0.0447208964889734
  0.2652932171637062  0.8572013634637733  0.9552791105110237
  0.6945338526565703  0.8497660960075372  0.0088593808086594
  0.1945338376565726  0.6502339039924628  0.0088593808086594
  0.8054661473434297  0.3497660960075372  0.9911405961913422
  0.3054661473434298  0.1502339179924710  0.9911405961913422
  0.2389555097201272  0.8773529949757303  0.5784706345611202
  0.2610444752798750  0.3773529949757302  0.4215293654388797
  0.7610444752798752  0.1226470050242698  0.4215293654388797
  0.7389555247201248  0.6226470050242697  0.5784706345611202

  0.00000000E+00  0.00000000E+00  0.00000000E+00
  0.00000000E+00  0.00000000E+00  0.00000000E+00
  0.00000000E+00  0.00000000E+00  0.00000000E+00
  0.00000000E+00  0.00000000E+00  0.00000000E+00
  0.00000000E+00  0.00000000E+00  0.00000000E+00
  0.00000000E+00  0.00000000E+00  0.00000000E+00
  0.00000000E+00  0.00000000E+00  0.00000000E+00
  0.00000000E+00  0.00000000E+00  0.00000000E+00
  0.00000000E+00  0.00000000E+00  0.00000000E+00
  0.00000000E+00  0.00000000E+00  0.00000000E+00
  0.00000000E+00  0.00000000E+00  0.00000000E+00
  0.00000000E+00  0.00000000E+00  0.00000000E+00
  0.00000000E+00  0.00000000E+00  0.00000000E+00
  0.00000000E+00  0.00000000E+00  0.00000000E+00
  0.00000000E+00  0.00000000E+00  0.00000000E+00
  0.00000000E+00  0.00000000E+00  0.00000000E+00
