NaSbS2 phase
   1.0000000000000000     
     8.8605579655271622    0.0000000000000000    0.3743584543945187
     0.0000000000000000    9.4694628277189778    0.0000000000000000
    -3.9123618193809175    0.0000000000000000    5.7783357270372688
   K    Sb   S 
     4     4     8
Direct
  0.5000000000000000  0.1425061571993802  0.2500000000000000
  0.5000000000000000  0.8574938278006152  0.7500000000000000
 -0.0000000000000000  0.6425061721993848  0.2500000000000000
 -0.0000000000000000  0.3574938278006150  0.7500000000000000
  0.5000000000000000  0.4148952287148936  0.7500000000000000
  0.5000000000000000  0.5851048012851088  0.2500000000000000
 -0.0000000000000000  0.9148951987148912  0.7500000000000000
 -0.0000000000000000  0.0851047862851182  0.2500000000000000
  0.2036259405912098  0.9232008031861891  0.2201005107724036
  0.7963740594087901  0.9232008031861891  0.2798995032275977
  0.7963740594087901  0.0767992038138080  0.7798995032275977
  0.2036259405912098  0.0767992038138080  0.7201004967724023
  0.7036259405912099  0.4232008031861891  0.2201005107724036
  0.2963740594087901  0.4232008031861891  0.2798995032275977
  0.2963740594087901  0.5767991968138109  0.7798995032275977
  0.7036259405912099  0.5767991968138109  0.7201004967724023

  0.00000000E+00  0.00000000E+00  0.00000000E+00
  0.00000000E+00  0.00000000E+00  0.00000000E+00
  0.00000000E+00  0.00000000E+00  0.00000000E+00
  0.00000000E+00  0.00000000E+00  0.00000000E+00
  0.00000000E+00  0.00000000E+00  0.00000000E+00
  0.00000000E+00  0.00000000E+00  0.00000000E+00
  0.00000000E+00  0.00000000E+00  0.00000000E+00
  0.00000000E+00  0.00000000E+00  0.00000000E+00
  0.00000000E+00  0.00000000E+00  0.00000000E+00
  0.00000000E+00  0.00000000E+00  0.00000000E+00
  0.00000000E+00  0.00000000E+00  0.00000000E+00
  0.00000000E+00  0.00000000E+00  0.00000000E+00
  0.00000000E+00  0.00000000E+00  0.00000000E+00
  0.00000000E+00  0.00000000E+00  0.00000000E+00
  0.00000000E+00  0.00000000E+00  0.00000000E+00
  0.00000000E+00  0.00000000E+00  0.00000000E+00
