RbBiS2 phase
   1.0000000000000000     
     3.9788782330692696   -0.0000000000000004    0.0000000000000000
    -1.9894391165346348    3.4458096283564212    0.0000000000000000
    -0.0000000000000000   -0.0000000000000001   19.0141625785909092
   Li   Bi   S 
     3     3     6
Direct
  0.3333333300000021  0.6666666699999979  0.1666666699999979
 -0.0000000000000000  0.0000000000000000  0.5000000000000000
  0.6666666699999979  0.3333333300000021  0.8333333300000021
  0.0000000000000000  0.0000000000000000  0.0000000000000000
  0.6666666699999979  0.3333333300000021  0.3333333300000021
  0.3333333300000021  0.6666666699999979  0.6666666699999979
  0.6666666699999979  0.3333333300000021  0.0877829293479723
 -0.0000000000000000 -0.0000000000000000  0.2455504006520157
  0.3333333300000021  0.6666666699999979  0.4211162693479823
  0.6666666699999979  0.3333333300000021  0.5788837306520248
 -0.0000000000000000 -0.0000000000000000  0.7544495993479773
  0.3333333300000021  0.6666666699999979  0.9122170706520277

  0.00000000E+00  0.00000000E+00  0.00000000E+00
  0.00000000E+00  0.00000000E+00  0.00000000E+00
  0.00000000E+00  0.00000000E+00  0.00000000E+00
  0.00000000E+00  0.00000000E+00  0.00000000E+00
  0.00000000E+00  0.00000000E+00  0.00000000E+00
  0.00000000E+00  0.00000000E+00  0.00000000E+00
  0.00000000E+00  0.00000000E+00  0.00000000E+00
  0.00000000E+00  0.00000000E+00  0.00000000E+00
  0.00000000E+00  0.00000000E+00  0.00000000E+00
  0.00000000E+00  0.00000000E+00  0.00000000E+00
  0.00000000E+00  0.00000000E+00  0.00000000E+00
  0.00000000E+00  0.00000000E+00  0.00000000E+00
