NaSbS2 phase
   1.0000000000000000     
     7.4589917347720185    0.0000000000000000   -0.0619038799983496
     0.0000000000000000    7.7803047792737230    0.0000000000000000
    -3.5611840280518412    0.0000000000000000    5.3984548752656636
   Li   As   S 
     4     4     8
Direct
  0.5000000000000000  0.1254902207482249  0.2500000000000000
  0.5000000000000000  0.8745097642517703  0.7500000000000000
 -0.0000000000000000  0.6254902357482297  0.2500000000000000
 -0.0000000000000000  0.3745097642517704  0.7500000000000000
  0.5000000000000000  0.4129147523790664  0.7500000000000000
  0.5000000000000000  0.5870852776209360  0.2500000000000000
 -0.0000000000000000  0.9129147223790640  0.7500000000000000
 -0.0000000000000000  0.0870852626209384  0.2500000000000000
  0.2318982814696778  0.8996861140695457  0.2404951583184666
  0.7681017185303222  0.8996861140695457  0.2595048556815346
  0.7681017185303222  0.1003138929304442  0.7595048556815345
  0.2318982814696778  0.1003138929304442  0.7404951443184655
  0.7318982814696778  0.3996861140695457  0.2404951583184666
  0.2681017185303222  0.3996861140695457  0.2595048556815346
  0.2681017185303222  0.6003138859304543  0.7595048556815345
  0.7318982814696778  0.6003138859304543  0.7404951443184655

  0.00000000E+00  0.00000000E+00  0.00000000E+00
  0.00000000E+00  0.00000000E+00  0.00000000E+00
  0.00000000E+00  0.00000000E+00  0.00000000E+00
  0.00000000E+00  0.00000000E+00  0.00000000E+00
  0.00000000E+00  0.00000000E+00  0.00000000E+00
  0.00000000E+00  0.00000000E+00  0.00000000E+00
  0.00000000E+00  0.00000000E+00  0.00000000E+00
  0.00000000E+00  0.00000000E+00  0.00000000E+00
  0.00000000E+00  0.00000000E+00  0.00000000E+00
  0.00000000E+00  0.00000000E+00  0.00000000E+00
  0.00000000E+00  0.00000000E+00  0.00000000E+00
  0.00000000E+00  0.00000000E+00  0.00000000E+00
  0.00000000E+00  0.00000000E+00  0.00000000E+00
  0.00000000E+00  0.00000000E+00  0.00000000E+00
  0.00000000E+00  0.00000000E+00  0.00000000E+00
  0.00000000E+00  0.00000000E+00  0.00000000E+00
