NaAsS2 phase
   1.0000000000000000     
     5.7870772866228668    0.0000000000000000    0.0522774903940573
     0.0000000000000000   11.7519197906538206    0.0000000000000000
     0.0350679458713259    0.0000000000000000    6.0105087282661502
   Na   Sb   S 
     4     4     8
Direct
  0.7650887536905607  0.3742670057240263  0.5005119662247443
  0.2349112463094395  0.6257329942759741  0.4994880337752558
  0.2650887536905603  0.1257329792759762  0.5005119662247443
  0.7349112463094393  0.8742670057240259  0.4994880337752558
  0.7372070282115730  0.6362789900831515  0.9517831869067563
  0.7627929717884270  0.1362790050831566  0.0482168200932408
  0.2627930017884294  0.3637210099168412  0.0482168200932408
  0.2372069982115705  0.8637210099168485  0.9517831869067563
  0.6770877748789785  0.8497517780743183  0.0045010027441289
  0.1770877598789805  0.6502482219256817  0.0045010027441289
  0.8229122251210215  0.3497517780743183  0.9954989742558730
  0.3229122251210220  0.1502482359256829  0.9954989742558730
  0.2337593298948835  0.8759530844937746  0.5559399413721056
  0.2662406551051186  0.3759530844937748  0.4440600586278948
  0.7662406551051183  0.1240469155062252  0.4440600586278948
  0.7337593448948817  0.6240469155062254  0.5559399413721056

  0.00000000E+00  0.00000000E+00  0.00000000E+00
  0.00000000E+00  0.00000000E+00  0.00000000E+00
  0.00000000E+00  0.00000000E+00  0.00000000E+00
  0.00000000E+00  0.00000000E+00  0.00000000E+00
  0.00000000E+00  0.00000000E+00  0.00000000E+00
  0.00000000E+00  0.00000000E+00  0.00000000E+00
  0.00000000E+00  0.00000000E+00  0.00000000E+00
  0.00000000E+00  0.00000000E+00  0.00000000E+00
  0.00000000E+00  0.00000000E+00  0.00000000E+00
  0.00000000E+00  0.00000000E+00  0.00000000E+00
  0.00000000E+00  0.00000000E+00  0.00000000E+00
  0.00000000E+00  0.00000000E+00  0.00000000E+00
  0.00000000E+00  0.00000000E+00  0.00000000E+00
  0.00000000E+00  0.00000000E+00  0.00000000E+00
  0.00000000E+00  0.00000000E+00  0.00000000E+00
  0.00000000E+00  0.00000000E+00  0.00000000E+00
