NaAsS2 phase
   1.0000000000000000     
     6.2245520154790261    0.0000000000000000    0.3005527774494302
     0.0000000000000000   13.5249661255493372    0.0000000000000000
     0.3036704817995010    0.0000000000000000    6.7313718167780436
   Rb   As   S 
     4     4     8
Direct
  0.7458321738329653  0.3729441517680413  0.5655427187578712
  0.2541678261670418  0.6270558482319586  0.4344572812421290
  0.2458321738329582  0.1270558332319610  0.5655427187578712
  0.7541678261670347  0.8729441517680414  0.4344572812421290
  0.7408462554403401  0.6562922486638765  0.9009369762924582
  0.7591537445596599  0.1562922636638742  0.0990630307075460
  0.2591537745596624  0.3437077513361235  0.0990630307075460
  0.2408462254403376  0.8437077513361235  0.9009369762924582
  0.6049409910883835  0.8174817494015553  0.9613950027416629
  0.1049409760883860  0.6825182505984447  0.9613950027416629
  0.8950590089116165  0.3174817494015552  0.0386049742583386
  0.3950590089116164  0.1825182645984460  0.0386049742583386
  0.2409681252023056  0.8697633477565591  0.5820077611324035
  0.2590318597976966  0.3697633477565589  0.4179922388675964
  0.7590318597976965  0.1302366522434411  0.4179922388675964
  0.7409681402023035  0.6302366522434409  0.5820077611324035

  0.00000000E+00  0.00000000E+00  0.00000000E+00
  0.00000000E+00  0.00000000E+00  0.00000000E+00
  0.00000000E+00  0.00000000E+00  0.00000000E+00
  0.00000000E+00  0.00000000E+00  0.00000000E+00
  0.00000000E+00  0.00000000E+00  0.00000000E+00
  0.00000000E+00  0.00000000E+00  0.00000000E+00
  0.00000000E+00  0.00000000E+00  0.00000000E+00
  0.00000000E+00  0.00000000E+00  0.00000000E+00
  0.00000000E+00  0.00000000E+00  0.00000000E+00
  0.00000000E+00  0.00000000E+00  0.00000000E+00
  0.00000000E+00  0.00000000E+00  0.00000000E+00
  0.00000000E+00  0.00000000E+00  0.00000000E+00
  0.00000000E+00  0.00000000E+00  0.00000000E+00
  0.00000000E+00  0.00000000E+00  0.00000000E+00
  0.00000000E+00  0.00000000E+00  0.00000000E+00
  0.00000000E+00  0.00000000E+00  0.00000000E+00
