RbBiS2 phase
   1.0000000000000000     
     4.0630050850410209    0.0000000000000000    0.0000000000000000
    -2.0315025425205104    3.5186656193011694    0.0000000000000000
     0.0000000000000000   -0.0000000000000000   19.7097473064376203
   Li   Sb   Se
     3     3     6
Direct
  0.3333333300000021  0.6666666699999979  0.1666666699999979
 -0.0000000000000000  0.0000000000000000  0.5000000000000000
  0.6666666699999979  0.3333333300000021  0.8333333300000021
  0.0000000000000000  0.0000000000000000  0.0000000000000000
  0.6666666699999979  0.3333333300000021  0.3333333300000021
  0.3333333300000021  0.6666666699999979  0.6666666699999979
  0.6666666699999979  0.3333333300000021  0.0863287701166774
  0.0000000000000000 -0.0000000000000000  0.2470045598833176
  0.3333333300000021  0.6666666699999979  0.4196621101166804
  0.6666666699999979  0.3333333300000021  0.5803378898833197
 -0.0000000000000000  0.0000000000000000  0.7529954401166824
  0.3333333300000021  0.6666666699999979  0.9136712298833226

  0.00000000E+00  0.00000000E+00  0.00000000E+00
  0.00000000E+00  0.00000000E+00  0.00000000E+00
  0.00000000E+00  0.00000000E+00  0.00000000E+00
  0.00000000E+00  0.00000000E+00  0.00000000E+00
  0.00000000E+00  0.00000000E+00  0.00000000E+00
  0.00000000E+00  0.00000000E+00  0.00000000E+00
  0.00000000E+00  0.00000000E+00  0.00000000E+00
  0.00000000E+00  0.00000000E+00  0.00000000E+00
  0.00000000E+00  0.00000000E+00  0.00000000E+00
  0.00000000E+00  0.00000000E+00  0.00000000E+00
  0.00000000E+00  0.00000000E+00  0.00000000E+00
  0.00000000E+00  0.00000000E+00  0.00000000E+00
