RbBiS2 phase
   1.0000000000000000     
     4.1397228005792472    0.0000000000000000    0.0000000000000000
    -2.0698614002896236    3.5851051098749864   -0.0000000000000000
     0.0000000000000000   -0.0000000000000002   19.8705601896109094
   Li   Bi   Se
     3     3     6
Direct
  0.3333333300000021  0.6666666699999979  0.1666666699999979
 -0.0000000000000000  0.0000000000000000  0.5000000000000000
  0.6666666699999979  0.3333333300000021  0.8333333300000021
 -0.0000000000000000 -0.0000000000000000 -0.0000000000000000
  0.6666666699999979  0.3333333300000021  0.3333333300000021
  0.3333333300000021  0.6666666699999979  0.6666666699999979
  0.6666666699999979  0.3333333300000021  0.0883702815835878
  0.0000000000000000  0.0000000000000000  0.2449630484164071
  0.3333333300000021  0.6666666699999979  0.4217036215835908
  0.6666666699999979  0.3333333300000021  0.5782963784164094
 -0.0000000000000000 -0.0000000000000000  0.7550369515835927
  0.3333333300000021  0.6666666699999979  0.9116297184164123

  0.00000000E+00  0.00000000E+00  0.00000000E+00
  0.00000000E+00  0.00000000E+00  0.00000000E+00
  0.00000000E+00  0.00000000E+00  0.00000000E+00
  0.00000000E+00  0.00000000E+00  0.00000000E+00
  0.00000000E+00  0.00000000E+00  0.00000000E+00
  0.00000000E+00  0.00000000E+00  0.00000000E+00
  0.00000000E+00  0.00000000E+00  0.00000000E+00
  0.00000000E+00  0.00000000E+00  0.00000000E+00
  0.00000000E+00  0.00000000E+00  0.00000000E+00
  0.00000000E+00  0.00000000E+00  0.00000000E+00
  0.00000000E+00  0.00000000E+00  0.00000000E+00
  0.00000000E+00  0.00000000E+00  0.00000000E+00
